In1 Sn3
1.0
   3.3766897056146670    0.0000000009895084    0.0000000000000002
  -1.6883445457185018    2.9242992430574972    0.0000000000000002
   0.0000000000000000    0.0000000000000000   11.3429069278547789
In Sn
1 3
direct
   0.6666666666666643    0.3333333333333357    0.0000000000000000 In
   0.6666666666666643    0.3333333333333357    0.5000000000000000 Sn
   0.3333333333333357    0.6666666666666643    0.2517294877846103 Sn
   0.3333333333333357    0.6666666666666643    0.7482705122153896 Sn
