K2 Sr2 Nb4 O12 F2
1.0
   3.9077900256178149    0.0000431455413882   -0.0002554323251689
  -0.0000365820099119    7.7793629368735520   -0.0000718106400532
  -1.9533320557705063   -3.8894607017695457   11.2097874567255396
K Sr Nb O F
2 2 4 12 2
direct
   0.2371415335227957    0.2371133488488237    0.4742252085079313 K
   0.7628584664772035    0.7628866511511758    0.5257747914920681 K
   0.0000000000000000    0.4999999999999999   -0.0000000000000000 Sr
   0.0000000000000000    0.0000000000000000    0.0000000000000000 Sr
   0.6079382572365338    0.3537971243810151    0.2158407337342157 Nb
   0.6079331547362878    0.8620453171244293    0.2158406267831265 Nb
   0.3920617427634658    0.6462028756189853    0.7841592662657841 Nb
   0.3920668452637119    0.1379546828755703    0.7841593732168733 Nb
   0.5947252098571060    0.5947050256267938    0.1894102226784487 O
   0.0846258102276675    0.3322398406710302    0.1692175170099284 O
   0.9153801710413580    0.1630274790095070    0.8307825549902651 O
   0.3123821216690593    0.5937438543359143    0.6248249886695612 O
   0.4052747901428940    0.4052949743732064    0.8105897773215516 O
   0.4223314004697419    0.9223499706850460    0.8446983609631318 O
   0.9153741897723323    0.6677601593289694    0.8307824829900711 O
   0.0846198289586421    0.8369725209904920    0.1692174450097343 O
   0.6876178783309410    0.4062561456640857    0.3751750113304395 O
   0.5776685995302578    0.0776500293149536    0.1553016390368677 O
   0.3123920754933974    0.0310802456998899    0.6248247711114224 O
   0.6876079245066018    0.9689197543001105    0.3751752288885778 O
   0.5000006710560937    0.2768427527950925    0.0000003868762218 F
   0.4999993289439066    0.7231572472049071   -0.0000003868762218 F
