Li4 Ca4 Al4 N8
1.0
   0.0000000000000000    5.7752375903903994   -0.0070649341558007
   6.8626329529195766    0.0000000000000000    0.0000000000000000
   0.0000000000000000   -0.0196767535788468   -5.8049966844422025
Li Ca Al N
4 4 4 8
direct
   0.3666784678759660    0.5983810216694804    0.9091589009962008 Li
   0.6333215321240339    0.0983810216694803    0.5908410990037993 Li
   0.6333215321240339    0.4016189783305197    0.0908410990037993 Li
   0.3666784678759660    0.9016189783305198    0.4091589009962007 Li
   0.0279951445765362    0.8711846955521935    0.7411372836281115 Ca
   0.9720048554234638    0.3711846955521936    0.7588627163718886 Ca
   0.9720048554234639    0.1288153044478065    0.2588627163718882 Ca
   0.0279951445765362    0.6288153044478068    0.2411372836281115 Ca
   0.6207518556702676    0.8597825177039489    0.0746509441003733 Al
   0.3792481443297326    0.3597825177039490    0.4253490558996266 Al
   0.3792481443297326    0.1402174822960510    0.9253490558996270 Al
   0.6207518556702676    0.6402174822960511    0.5746509441003730 Al
   0.2685694715672137    0.1455284476927805    0.6058617025729550 N
   0.7314305284327866    0.6455284476927805    0.8941382974270450 N
   0.7314305284327866    0.8544715523072196    0.3941382974270451 N
   0.2685694715672137    0.3544715523072193    0.1058617025729549 N
   0.2875745657087214    0.6069669989704043    0.5667934794947745 N
   0.7124254342912787    0.1069669989704040    0.9332065205052255 N
   0.7124254342912788    0.3930330010295960    0.4332065205052255 N
   0.2875745657087213    0.8930330010295958    0.0667934794947746 N
