Li1 V1 P4 H4 O14
1.0
   5.3046717342676555    0.1435203538255312   -0.0151674603243401
   2.6114459241562602    6.5080442277229062   -0.3479204280201433
   1.1924849232609360    0.3469229864781698    7.5176874076760836
Li V P H O
1 1 4 4 14
direct
   0.0000000000000000    0.0000000000000000    0.0000000000000000 Li
   0.0000000000000000    0.4999999999999999    0.0000000000000000 V
   0.3329834875422122    0.2386092782486896    0.3141832128363476 P
   0.3728156844037440    0.6511685406508236    0.2268904954718147 P
   0.6271843155962570    0.3488314593491764    0.7731095045281858 P
   0.6670165124577874    0.7613907217513105    0.6858167871636514 P
   0.0551185235768727    0.8114819074639047    0.4461397607410723 H
   0.6735987628916680    0.9407790767921994    0.3382063539686742 H
   0.3264012371083320    0.0592209232078008    0.6617936460313266 H
   0.9448814764231286    0.1885180925360953    0.5538602392589272 H
   0.8233314505040928    0.3080955253958740    0.9116497342552927 O
   0.6536421131335503    0.6520836206059386    0.1567061091519234 O
   0.5793962253275535    0.5680124437171293    0.6832943015309986 O
   0.7598029791189227    0.1861738198532547    0.6192475035776215 O
   0.3821025242790763    0.9438118223391745    0.7532239865588207 O
   0.6178974757209228    0.0561881776608245    0.2467760134411793 O
   0.2165701598483590    0.2088134748676241    0.5017753079132544 O
   0.4206037746724477    0.4319875562828702    0.3167056984690008 O
   0.3463578868664559    0.3479163793940622    0.8432938908480767 O
   0.1766685494959073    0.6919044746041264    0.0883502657447073 O
   0.7834298401516405    0.7911865251323750    0.4982246920867446 O
   0.1334514228105232    0.2798547922784567    0.1797678899714495 O
   0.2401970208810777    0.8138261801467452    0.3807524964223781 O
   0.8665485771894774    0.7201452077215422    0.8202321100285511 O
