Si8 Br32
1.0
  10.9450564291373595   -0.0000000000000000    0.0000000000000000
  -0.0000000000000000   10.9450564291373595    0.0000000000000000
  -0.0000000000000000   -0.0000000000000000   10.9450564291373595
Si Br
8 32
direct
   0.3700284974004003    0.6299715025996002    0.1299715025996001 Si
   0.1299715025996001    0.1299715025996001    0.1299715025996001 Si
   0.8700284974003998    0.8700284974003998    0.8700284974003998 Si
   0.1299715025996001    0.3700284974004003    0.6299715025996002 Si
   0.6299715025996002    0.1299715025996001    0.3700284974004003 Si
   0.8700284974003998    0.6299715025996002    0.3700284974004003 Si
   0.3700284974004003    0.8700284974003998    0.6299715025996002 Si
   0.6299715025996002    0.3700284974004003    0.8700284974003998 Si
   0.2468601561138970    0.2531398438861028    0.7468601561138972 Br
   0.0082418152438051    0.2525625139235746    0.5177627910615469 Br
   0.7525625139235750    0.5177627910615469    0.4917581847561948 Br
   0.9822372089384531    0.9917581847561950    0.7525625139235750 Br
   0.0082418152438051    0.2474374860764253    0.0177627910615466 Br
   0.7474374860764250    0.0177627910615466    0.4917581847561948 Br
   0.4917581847561948    0.7525625139235750    0.5177627910615469 Br
   0.4822372089384531    0.9917581847561950    0.7474374860764250 Br
   0.7531398438861027    0.7468601561138972    0.2531398438861028 Br
   0.2468601561138970    0.2468601561138970    0.2468601561138970 Br
   0.2531398438861028    0.7468601561138972    0.2468601561138970 Br
   0.7531398438861027    0.7531398438861027    0.7531398438861027 Br
   0.9917581847561950    0.7525625139235750    0.9822372089384531 Br
   0.2474374860764253    0.0177627910615466    0.0082418152438051 Br
   0.2474374860764253    0.4822372089384532    0.5082418152438051 Br
   0.9822372089384531    0.5082418152438051    0.2525625139235746 Br
   0.2525625139235746    0.9822372089384531    0.5082418152438051 Br
   0.9917581847561950    0.7474374860764250    0.4822372089384531 Br
   0.2525625139235746    0.5177627910615469    0.0082418152438051 Br
   0.5177627910615469    0.4917581847561948    0.7525625139235750 Br
   0.4822372089384532    0.5082418152438051    0.2474374860764253 Br
   0.0177627910615466    0.4917581847561948    0.7474374860764250 Br
   0.5082418152438051    0.2525625139235746    0.9822372089384531 Br
   0.7468601561138972    0.2531398438861028    0.7531398438861027 Br
   0.7468601561138972    0.2468601561138970    0.2531398438861028 Br
   0.0177627910615466    0.0082418152438051    0.2474374860764253 Br
   0.7525625139235750    0.9822372089384531    0.9917581847561950 Br
   0.5082418152438051    0.2474374860764253    0.4822372089384532 Br
   0.7474374860764250    0.4822372089384532    0.9917581847561950 Br
   0.2531398438861028    0.7531398438861027    0.7468601561138972 Br
   0.5177627910615469    0.0082418152438051    0.2525625139235746 Br
   0.4917581847561948    0.7474374860764250    0.0177627910615466 Br
