Ba2 Y1 Ru1 O6
1.0
   5.1435164383675369    0.0000000000000000    2.9696104288399967
   1.7145054794558456    4.8493542379203349    2.9696104288399967
   0.0000000000000000    0.0000000000000000    5.9392208576799934
Ba Y Ru O
2 1 1 6
direct
   0.7499999999999999    0.7500000000000000    0.7500000000000002 Ba
   0.2499999999999999    0.2500000000000000    0.2500000000000001 Ba
   0.0000000000000000    0.0000000000000000    0.0000000000000000 Y
   0.4999999999999999    0.5000000000000000    0.5000000000000001 Ru
   0.2652906597955229    0.7347093402049671    0.7347093402035136 O
   0.2652906597955229    0.7347093402049671    0.2652906597959964 O
   0.7347093402044771    0.2652906597950329    0.7347093402040036 O
   0.2652906597960126    0.2652906597950329    0.7347093402044774 O
   0.7347093402044771    0.2652906597950329    0.2652906597964864 O
   0.7347093402039874    0.7347093402049671    0.2652906597955230 O
