Rb8 I4 O4
1.0
   5.6329911656045750   -0.0000000000000000    0.0000000000000003
   0.0000000000000013    7.9648189422150697    0.0000000000000004
   0.0000000000000000   -0.0000000000000000   11.7873852304246967
Rb I O
8 4 4
direct
   0.2500000000000000    0.6467137671599290    0.9397813593589178 Rb
   0.2500000000000000    0.1467137671599290    0.5602186406410822 Rb
   0.7500000000000000    0.3532862328400709    0.0602186406410821 Rb
   0.7500000000000000    0.8532862328400709    0.4397813593589178 Rb
   0.2500000000000000    0.5862674896479751    0.2835163765588176 Rb
   0.2500000000000000    0.0862674896479752    0.2164836234411823 Rb
   0.7500000000000000    0.4137325103520248    0.7164836234411824 Rb
   0.7500000000000000    0.9137325103520247    0.7835163765588175 Rb
   0.2500000000000000    0.6757829551626328    0.6148679797652848 I
   0.2500000000000000    0.1757829551626325    0.8851320202347152 I
   0.7500000000000000    0.3242170448373674    0.3851320202347150 I
   0.7500000000000000    0.8242170448373672    0.1148679797652848 I
   0.2500000000000000    0.8889873971006060    0.3942687276412276 O
   0.2500000000000000    0.3889873971006065    0.1057312723587724 O
   0.7500000000000000    0.1110126028993937    0.6057312723587724 O
   0.7500000000000000    0.6110126028993940    0.8942687276412276 O
