Li8 Mn2 F14
1.0
   6.1306704842688013    4.3626139661684986   -0.1123593118510727
  -6.1306704842688013    4.3626139661684986    0.1123593118510727
  -1.2117116501291698    0.0000000000000000    5.2044780810997269
Li Mn F
8 2 14
direct
   0.2501352201812160    0.9442790546406561    0.8490202962504891 Li
   0.0557209453593446    0.7498647798187841    0.3490202962504891 Li
   0.3105402315727381    0.5791839588537077    0.7711593655914881 Li
   0.4208160411462917    0.6894597684272623    0.2711593655914877 Li
   0.5791839588537078    0.3105402315727381    0.7288406344085119 Li
   0.6894597684272623    0.4208160411462917    0.2288406344085122 Li
   0.9442790546406561    0.2501352201812160    0.6509797037495109 Li
   0.7498647798187841    0.0557209453593445    0.1509797037495108 Li
   0.7649172900270524    0.7649172900270524    0.7500000000000000 Mn
   0.2350827099729478    0.2350827099729478    0.2500000000000000 Mn
   0.6041918943367117    0.2123411058727349    0.0667586041869942 F
   0.7876588941272654    0.3958081056632891    0.5667586041869940 F
   0.8430011445116440    0.6667748361669139    0.0842520631752331 F
   0.3332251638330860    0.1569988554883559    0.5842520631752329 F
   0.4508635512705699    0.4508635512705700    0.2500000000000000 F
   0.5491364487294308    0.5491364487294307    0.7500000000000000 F
   0.1843460120563549    0.9848601656132399    0.1535460376692261 F
   0.1569988554883559    0.3332251638330860    0.9157479368247672 F
   0.2123411058727350    0.6041918943367117    0.4332413958130057 F
   0.3958081056632891    0.7876588941272653    0.9332413958130060 F
   0.8156539879436457    0.0151398343867601    0.8464539623307733 F
   0.0151398343867603    0.8156539879436457    0.6535460376692268 F
   0.6667748361669138    0.8430011445116441    0.4157479368247671 F
   0.9848601656132397    0.1843460120563549    0.3464539623307739 F
