Cd2 B4 H16
1.0
   6.0342838950192093   -0.0000000000000000    0.0000000000000000
   0.0000000000000000    6.0342838950192093    0.0000000000000000
   0.0000000000000000    0.0000000000000000    5.7898973026568958
Cd B H
2 4 16
direct
   0.0000000000000000    0.0000000000000000    0.9965187134422285 Cd
   0.5000000000000000    0.5000000000000000    0.4965187134422289 Cd
   0.2731691214274700    0.2731691214274700    0.2240782303176874 B
   0.7268308785725298    0.7268308785725298    0.2240782303176874 B
   0.7731691214274702    0.2268308785725300    0.7240782303176880 B
   0.2268308785725300    0.7731691214274702    0.7240782303176880 B
   0.6996387315763253    0.6996387315763253    0.0192486770394044 H
   0.3003612684236751    0.3003612684236751    0.0192486770394044 H
   0.3653615742663054    0.6346384257336949    0.7910895176117181 H
   0.6346384257336949    0.3653615742663054    0.7910895176117181 H
   0.8653615742663052    0.8653615742663052    0.2910895176117173 H
   0.1346384257336944    0.1346384257336944    0.2910895176117173 H
   0.1980728515410926    0.4479148336622419    0.3036623591550395 H
   0.0520851663377584    0.6980728515410926    0.8036623591550397 H
   0.9479148336622414    0.3019271484589076    0.8036623591550397 H
   0.8003612684236747    0.1996387315763248    0.5192486770394046 H
   0.3019271484589076    0.9479148336622414    0.8036623591550397 H
   0.6980728515410926    0.0520851663377584    0.8036623591550397 H
   0.5520851663377586    0.8019271484589074    0.3036623591550395 H
   0.4479148336622419    0.1980728515410926    0.3036623591550395 H
   0.8019271484589074    0.5520851663377586    0.3036623591550396 H
   0.1996387315763248    0.8003612684236747    0.5192486770394046 H
