Sc2 Fe2 C4
1.0
   3.3451303912543016    0.0000000000000000    0.0000000000000000
   0.0000000000000000    3.3451303912543016    0.0000000000000000
  -0.0000000000000000    0.0000000000000000    7.3214942348293555
Sc Fe C
2 2 4
direct
   0.7500000000000000    0.7500000000000000    0.6516698174477876 Sc
   0.2500000000000000    0.2500000000000000    0.3483301825522123 Sc
   0.7500000000000000    0.2500000000000000    0.0000000000000000 Fe
   0.2500000000000000    0.7500000000000000    0.0000000000000000 Fe
   0.7500000000000000    0.7500000000000000    0.1579497217624873 C
   0.2500000000000000    0.2500000000000000    0.8420502782375126 C
   0.7500000000000000    0.7500000000000000    0.3504781424383238 C
   0.2500000000000000    0.2500000000000000    0.6495218575616762 C
