Fe4 O4
1.0
   3.0371940726577509    0.0191332036002841   -0.0148468297666310
   1.4911817299254579    4.9604544817907339    0.9008209502119399
   0.0255597488388792   -0.0337986769047810    5.2575503565737227
Fe O
4 4
direct
   0.4931499176874306    0.0000385357501841    0.4999737633801856 Fe
   0.7510157521513221    0.4999857219406116    0.2499963925841491 Fe
   0.0068442337245344    0.9999944138438078    0.0000245704125087 Fe
   0.2489769858833781    0.4999803051663398    0.7500012812459897 Fe
   0.8709638440561954    0.2499829489885875    0.6250561160680757 O
   0.3790614392454267    0.2500181900434558    0.1250314149878381 O
   0.1219999763761700    0.7499817931103040    0.3749743918451530 O
   0.6279878508755420    0.7500190911567068    0.8749440694761025 O
