Li4 V2 Cr2 O8
1.0
   3.7119063154311314   -0.0000128840437474   -1.5460083321298721
  -2.4055939071237864    7.3074569161010841   -0.5466858010941220
  -0.0078083655259250   -0.0093542106317696    5.2104120255308422
Li V Cr O
4 2 2 8
direct
   0.6250090712663171    0.8749902392386985    0.3750267104161052 Li
   0.1250282674900574    0.3749788217359973    0.8750771644498985 Li
   0.2500171589351566    0.7499681758010057    0.7500620199348588 Li
   0.7500534581128155    0.2499623037552850    0.2501411397888871 Li
   0.4999861230932760    0.5000069926613935    0.4999621179030827 V
  -0.0000040861927292    0.0000069522629289   -0.0000148932606945 V
   0.3750051080556673    0.1250040480257779    0.6250075258494776 Cr
   0.8749901086114525    0.6250093948447294    0.1249675336787014 Cr
   0.2595113901421984    0.2404801104408502    0.2785384114848350 O
   0.7595125948900072    0.7404903046271859    0.7785278970255277 O
   0.4904814802141545    0.0095303002325964    0.9714347499634579 O
   0.9904665411839044    0.5095360927095426    0.4713952405996417 O
   0.1162379760253077    0.8837655841381965    0.3487088726903333 O
   0.6162329718973438    0.3837730220161268    0.8486909741688371 O
   0.8837515083499382    0.1162519410515382    0.6512503770166389 O
   0.3837390490654501    0.6162574317591893    0.1512185255264168 O
