Li4 Mn4 P4 O16
1.0
   5.0586019753846552    0.0000000000000000    0.0000000000000000
   0.0000000000000000    6.7992330325995507    0.0000000000000000
   0.0000000000000000    0.0000000000000000   10.1684681997720414
Li Mn P O
4 4 4 16
direct
   0.3175134058341385    0.7871350350167624    0.8467655694830342 Li
   0.8175132105840803    0.2871352580271768    0.6532346960773121 Li
   0.1824863989158038    0.7871350350167624    0.3467654809629186 Li
   0.6824862036657465    0.2871352580271768    0.1532346075571969 Li
   0.3168433989581911    0.2865765407364788    0.8449080844353208 Mn
   0.8168432037081328    0.7865763177260644    0.6550921811250255 Mn
   0.1831564057917516    0.2865765407364788    0.3449079959152053 Mn
   0.6831562105416943    0.7865763177260644    0.1550920926049100 Mn
   0.8200081128041710    0.0367999816995971    0.9073046920420559 P
   0.3200083080542291    0.5367997586891829    0.5926955735182905 P
   0.6799913014456560    0.0367999816995971    0.4073046035219400 P
   0.1799914966957133    0.5367997586891829    0.0926954849981753 P
   0.3758986783907499    0.0296119071869421    0.3860965176205784 O
   0.2479719725245784    0.5434922957467951    0.4447275377656167 O
   0.7520276369753064    0.0434925187572103    0.5552726392746139 O
   0.7869338689142642    0.2246061821722178    0.3378862381307598 O
   0.1952513828956530    0.3499510502485780    0.6552600747689256 O
   0.2130657405856203    0.7246059591618037    0.6621139389094708 O
   0.7130655453355627    0.2246061821722178    0.8378863266508756 O
   0.8758984831406921    0.5296116841765279    0.1139035708995372 O
   0.7479717772745206    0.0434925187572103    0.0552725507544985 O
   0.2520278322253639    0.5434922957467951    0.9447276262857326 O
   0.2869340641643222    0.7246059591618037    0.1621138503893553 O
   0.3047484218542891    0.3499510502485780    0.1552599862488102 O
   0.8047482266042316    0.8499508272381636    0.3447401022713049 O
   0.1241011263591922    0.0296119071869421    0.8860966061406939 O
   0.6952511876455952    0.8499508272381636    0.8447401907914208 O
   0.6241009311091348    0.5296116841765279    0.6139036594196525 O
