Fe6 N3
1.0
   2.3551443485249726   -4.0792975414916981    0.0000742289803830
   2.3551443485249726    4.0792975414916981    0.0000742289803830
  -0.0003481179596297    0.0000000000000000    4.3231046613047912
Fe N
6 3
direct
  -0.0013646498331162    0.3333415088364255    0.2503250579864281 Fe
   0.6666763744935371    0.6652942206941095    0.2503068599903915 Fe
   0.3346819559724420    0.0013596802435350    0.2503087926148228 Fe
   0.6666574695946826    0.0013630255848965    0.7496728856005367 Fe
   0.3347035331279175    0.3333213793284904    0.7496901054006593 Fe
  -0.0013613044917549    0.6653170224586662    0.7496891509721421 Fe
  -0.0000038206067700    0.0000038206067698    0.0000000000000000 N
   0.3333327866842941    0.6666653667768716   -0.0000009781959142 N
   0.6666707167052872    0.3333270371167401    0.4999984826955253 N
