K2 S1 F6
1.0
  -2.8749935741893182    4.0661999251385872    2.8752224357587282
   2.8746652647069855   -4.0660384354821471    2.8746652647069855
   2.8752224357587282    4.0661999251385872   -2.8749935741893182
K S F
2 1 6
direct
   0.7499640715007383    0.5000010216023576    0.2500367760908710 K
   0.2500367760908711    0.5000010216023576    0.7499640715007383 K
   0.0000000000000000    0.0000000000000000    0.0000000000000000 S
   0.7689883845654342    0.0000001980023687    0.2310118318397281 F
   0.2311418776235073    0.0002740855368977    0.2311418776235073 F
   0.2308533240659252    0.4620675825267046    0.2308533240659251 F
   0.2310118318397280    0.0000001980023686    0.7689883845654343 F
   0.7688583387816550   -0.0002736895321603    0.7688583387816551 F
   0.7691475235256839    0.5379344606780107    0.7691475235256839 F
