Mg2 Be1 Br1
1.0
  -1.9655481988468300    1.9655481988468300    5.6128534128452170
   1.9655481988468300   -1.9655481988468300    5.6128534128452170
   1.9655481988468300    1.9655481988468300   -5.6128534128452170
Mg Be Br
2 1 1
direct
   0.0000000000000000    0.0000000000000000    0.0000000000000000 Mg
   0.2499998479897405    0.7500003061706110    0.5000004581808707 Mg
   0.4999996959794809    0.4999996959794809    0.0000000000000000 Be
   0.7500003061706111    0.2499998479897405    0.5000004581808707 Br
