Cu8 H6 C4 N10
1.0
   5.6379449658581731    0.0000000000000000   -0.0000000000000000
  -2.8189724829290865    4.8826034931986033    0.0000000000000000
  -0.0000000000000000    0.0000000000000000   10.9382143720013030
Cu H C N
8 6 4 10
direct
   0.8317880966712851    0.6635770841347945    0.2363121855785836 Cu
   0.3364221587074427    0.1682111052137469    0.2363121855785836 Cu
   0.8317880557140798    0.1682111052137469    0.2363121855785836 Cu
   0.6666664403639395    0.3333327615210090    0.7495265711304192 Cu
   0.6635770431775885    0.8317881793485550    0.7363119857287201 Cu
   0.1682111052137461    0.3364222004275073    0.7363119857287201 Cu
   0.3333327615210917    0.6666665230412930    0.2495267709802829 Cu
   0.1682111461709515    0.8317881793485550    0.7363119857287201 Cu
   0.2349492309035326    0.4698984618070652    0.0370787300889763 H
   0.5301007983537734    0.7650500536587698    0.0370787300889763 H
   0.2349492553049965    0.7650500536587698    0.0370787300889763 H
   0.4698984035312587    0.2349492309035326    0.5370785302391126 H
   0.7650499465800346    0.2349492309035326    0.5370785302391126 H
   0.7650499709814991    0.5301008227552363    0.5370785302391126 H
   0.6666664403639395    0.3333327615210090    0.0273068481700428 C
   0.0000000000000000    0.0000000000000000    0.9421032811512852 C
   0.3333327615210917    0.6666665230412930    0.5273066483201788 C
   0.0000000000000000    0.0000000000000000    0.4421034810011480 C
   0.3333327615210917    0.6666665230412930    0.4188965098635905 N
   0.6666664403639395    0.3333327615210090    0.1448538500067667 N
   0.0000000000000000    0.0000000000000000    0.3245018875724279 N
   0.6666664403639395    0.3333327615210090    0.9188963100137270 N
   0.0000000000000000    0.0000000000000000    0.8245016877225648 N
   0.0000000000000000    0.0000000000000000    0.5513188644022600 N
   0.6666664403639395    0.3333327615210090    0.5705176423865426 N
   0.3333327615210917    0.6666665230412930    0.0705178422364053 N
   0.0000000000000000    0.0000000000000000    0.0513190642521240 N
   0.3333327615210917    0.6666665230412930    0.6448536501569029 N
