In1 B2 As1
1.0
   0.0000000000000000    3.1748119659781624    3.1748119659781624
   3.1748119659781624   -0.0000000000000000    3.1748119659781624
   3.1748119659781624    3.1748119659781624   -0.0000000000000000
In B As
1 2 1
direct
   0.7499995355682043    0.7499995355682044    0.7499995355682044 In
   0.0000000000000000    0.0000000000000000    0.0000000000000000 B
   0.2499998451894015    0.2499998451894015    0.2499998451894015 B
   0.4999996903788029    0.4999996903788030    0.4999996903788030 As
