Pr3 Ga10 Ni1
1.0
   4.2977027136181523   -0.0000000000000000    0.0000000000000000
  -0.0000000000000000    4.2948643212802304    0.0000000000000000
   0.0000000000000000    0.0000000000000000   15.2830204343221236
Pr Ga Ni
3 10 1
direct
   0.4999996842943389    0.0000000000000000    0.4999999857906974 Pr
   0.0000000000000000    0.0000000000000000    0.2485635175022520 Pr
   0.0000000000000000    0.0000000000000000    0.7514364540791424 Pr
   0.4999996842943389    0.4999994969247097    0.1832897242516256 Ga
   0.4999996842943389    0.4999994969247097    0.8167102473297693 Ga
   0.4999996842943389    0.4999994969247097    0.3423577038033796 Ga
   0.4999996842943389    0.4999994969247097    0.6576422677780152 Ga
   0.0000000000000000    0.4999994969247097    0.4192451776256185 Ga
   0.0000000000000000    0.4999994969247097    0.5807547939557762 Ga
   0.0000000000000000    0.4999994969247097    0.0848381701303428 Ga
   0.0000000000000000    0.4999994969247097    0.9151618014510522 Ga
   0.4999996842943389    0.0000000000000000    0.0844885604471295 Ga
   0.4999996842943389    0.0000000000000000    0.9155114111342653 Ga
   0.0000000000000000    0.0000000000000000    0.0000000000000000 Ni
