Rb2 Au2 Cl8
1.0
   5.7867740424813556    0.0000000000000000    0.0000000000000000
  -2.8933870212406778    5.9652979915535198   -1.2820375596521385
   0.0000000000000000    0.1356009810212409    9.9058701543555721
Rb Au Cl
2 2 8
direct
   0.7345942578020578    0.5000001297373938    0.2499998897184603 Rb
   0.2654046177050276    0.5000000479278346    0.7499998713393871 Rb
   0.0000000000000000    0.0000000000000000    0.0000000000000000 Au
   0.4999996098089577   -0.0000000818095593    0.4999999816209267 Au
   0.8176989030493816    0.6155999821768144    0.9288633193108927 Cl
   0.3222299851942382    0.0368855117055501    0.8521500492576012 Cl
   0.7020991685661491    0.3844001136788548    0.5711364233678813 Cl
   0.1822999724577035    0.3844001954884142    0.0711364417469551 Cl
   0.6777688903128470    0.9631146659596783    0.1478497118002463 Cl
   0.7853437211185361    0.9631145841501190    0.6478496934211728 Cl
   0.2146551543885489    0.0368855935151094    0.3521500676366743 Cl
   0.2978997069409361    0.6156000639863738    0.4288633376899655 Cl
