Ba4 Si4 O12
1.0
   4.6140629936500774    0.0000000000000000    0.0000000000000000
   0.0000000000000000    5.6441547075412215    0.0000000000000000
   0.0000000000000000    0.0000000000000000   12.5094327559537337
Ba Si O
4 4 12
direct
   0.7717497498122762    0.1867803420877999    0.3579143731437722 Ba
   0.2282496013777524    0.6867799250597891    0.1420855167012038 Ba
   0.7282492769727672    0.8132188238561783    0.8579142629887485 Ba
   0.2717500742172623    0.3132192408841892    0.6420854065461792 Ba
   0.3261499186075328    0.6999427944639895    0.4263152299619526 Si
   0.8261495942025477    0.8000559544519777    0.5736845497279994 Si
   0.6738494325824956    0.1999432114920076    0.0736846598830234 Si
   0.1738497569874816    0.3000563714799883    0.9263151198069282 Si
   0.8184650892951976    0.2808744991604423    0.9556732733305586 O
   0.3184654137001835    0.2191250838115469    0.0443265063593934 O
   0.2398472278563339    0.5769687523937024    0.9044515016198371 O
   0.2583074613369215    0.8881158493402560    0.3325396301900014 O
   0.7583071369319357    0.6118828995757114    0.6674601494999499 O
   0.7416918898531076    0.3881162663682658    0.1674602596549744 O
   0.2416922142580930    0.1118833166037230    0.8325395200349778 O
   0.2601524477386805    0.4230304135502755    0.4044516117748612 O
   0.7601521233336949    0.0769691694217134    0.5955481679150905 O
   0.7398469034513485    0.9230299965222649    0.0955482780701147 O
   0.6815339374898459    0.7191246667835361    0.4556733834855823 O
   0.1815342618948312    0.7808740821324313    0.5443263962043690 O
