Al1 H1 N2
1.0
   2.8192388629177993    0.0000000000000000    0.0000000000000000
   0.0000000000000000    2.8192388629177993    0.0000000000000000
   0.0000000000000000    0.0000000000000000    4.0283392821615838
Al H N
1 1 2
direct
   0.5000004519805658    0.5000004519805658    0.4689993506670118 Al
   0.0000000000000000    0.0000000000000000    0.1647663360951189 H
   0.0000000000000000    0.0000000000000000    0.4230115850281735 N
   0.5000004519805658    0.5000004519805658    0.9532241266178634 N
