Mg2 Cr2 F8
1.0
   4.5899148465474475    0.0860798038977128   -1.9388972620896385
  -1.1016094663212799    5.0413702671672036   -2.3840717676995178
   0.3301505638739622   -0.1975884146519626    6.2063861442339157
Mg Cr F
2 2 8
direct
   0.2480578392887419    0.1794825510313442    0.4989951588771721 Mg
   0.7480651101070822    0.8220091504485488    0.4989969102174915 Mg
   0.9980746325346934    0.5007441956948400    0.9990001540166367 Cr
   0.4980643101412844    0.0007313378667330    0.9989954371250568 Cr
   0.8127156462498591    0.4980512522287024    0.2344095233831178 F
   0.6678497677167377    0.2093441460901964    0.7054266550532116 F
   0.1834622524427284    0.5034559604508141    0.7636041692175862 F
   0.1678508347845706    0.9985858722986849    0.7054367744846792 F
   0.3282838719201001    0.7921493716863978    0.2925577430742565 F
   0.3126967789261852    0.2388494779647805    0.2344006116470931 F
   0.8282821244137253    0.0029102159510048    0.2925688217051785 F
   0.6834510242691456    0.7626483612675344    0.7636065336017416 F
