Mg2 Ti4 O8
1.0
   5.3267911814546904   -0.0000000002312440   -2.7966339304813110
  -1.4682680309857319    5.1204397261062873   -2.7966339279280126
  -0.2459606076914598   -0.3264020968206678    6.0028432857451524
Mg Ti O
2 4 8
direct
   0.3749998882689757    0.6250003636060995    0.7500003613252775 Mg
   0.6249998172063942    0.3750001546309021    0.2500005046486504 Mg
   0.0000001049779752    0.0000001962500002    0.4999998666551563 Ti
  -0.0000001600355388    0.5000000441594473    0.0000002731873745 Ti
   0.5000000127732237    0.0000002149590535    0.5000001597995893 Ti
   0.0000000000000000    0.0000000000000000    0.0000000000000000 Ti
   0.7581490182561457    0.7743422829694210    0.5162983249061533 O
   0.7580443778778200    0.2418511383166703    0.9837027192090585 O
   0.2256581039457440    0.2418511183960931    0.9837024070766585 O
   0.2418506872192240    0.2256582352675805    0.4837025410677743 O
   0.2418505168174761    0.7580446543956177    0.4837028319505315 O
   0.2419553275975498    0.7581493799203314    0.0162981467648694 O
   0.7581491886578936    0.2419558638413837    0.5162980340233964 O
   0.7743416015296261    0.7581493998409086    0.0162984588972694 O
