Mg4 V4 Bi4 O20
1.0
   0.0000000000000000    5.3477659383355132    0.0108765907626683
  11.6522734312717269    0.0000000000000000    0.0000000000000000
   0.0000000000000000   -3.0789725193947581   -7.2943753188065132
Mg V Bi O
4 4 4 20
direct
   0.5519258269319470    0.0786771916485313    0.1761639462496029 Mg
   0.4480755052263627    0.9213225138791707    0.8238362301116946 Mg
   0.4480750845647406    0.5786770444123832    0.3238359086075210 Mg
   0.5519262475935691    0.4213226611153202    0.6761642677537762 Mg
   0.1905959147727212    0.3509497019711186    0.9725824362218437 V
   0.8094054173855888    0.6490500035565838    0.0274177401394541 V
   0.8094058380472108    0.8509495547349700    0.5274180616436273 V
   0.1905954941110991    0.1490501507927324    0.4725821147176703 V
   0.9329987377198108    0.4029277367057680    0.3209848596028904 Bi
   0.0670025944384985    0.5970719688219341    0.6790153167584071 Bi
   0.0670021737768764    0.9029275894696198    0.1790149952542333 Bi
   0.9329991583814328    0.0970721160580833    0.8209851811070639 Bi
   0.3299314821616939    0.2858808835783138    0.5162095264517800 O
   0.7005457527217454    0.9305115732211282    0.6735364392980560 O
   0.8490699521949767    0.1753274026746819    0.3662524823028163 O
   0.7604635176368658    0.0273466870681069    0.0159627466588625 O
   0.2395378145214442    0.9726530184595954    0.9840374297024348 O
   0.3299310615000718    0.2141189691855374    0.0162092049476063 O
   0.7446537142719382    0.5723507057315551    0.8265379457627150 O
   0.2553480385479936    0.0723508529677039    0.6734625521027560 O
   0.2553476178863716    0.4276489997961476    0.1734622305985820 O
   0.7604639382984878    0.4726531656957443    0.5159630681630362 O
   0.7005453320601233    0.5694879850704256    0.1735361177938825 O
   0.2994560000981862    0.4305117204572770    0.8264640585674149 O
   0.6700702706582373    0.7858807363421655    0.9837909714136910 O
   0.6700698499966152    0.7141188219493885    0.4837906499095179 O
   0.8490703728565989    0.3246724500891694    0.8662528038069902 O
   0.1509313799633330    0.8246723028530205    0.6337476940584807 O
   0.2994555794365641    0.0694881323065740    0.3264637370632417 O
   0.7446532936103161    0.9276488525599987    0.3265376242585421 O
   0.2395373938598221    0.5273465398319583    0.4840371081982618 O
   0.1509309593017109    0.6753272554385334    0.1337473725543077 O
