Ce1 Ni2 Sb2
1.0
   4.2266308680584483   -0.0405663212727678   -3.8835972949385393
  -0.8422776581010286    4.1420553194784038   -3.8835972952744879
   0.0334733928786905    0.0405663192084580    5.7398271080893482
Ce Ni Sb
1 2 2
direct
   0.0000000000000000    0.0000000000000000    0.0000000000000000 Ce
   0.6292509622364407    0.6292515584730614   -0.0000007859645091 Ni
   0.3707483374638686    0.3707486887604831   -0.0000004630824216 Ni
   0.7499993231377673    0.2500000603187504    0.4999993634949836 Sb
   0.2499993430821011    0.7500010628087764    0.5000000553087288 Sb
