Tb2 Cu1 Ge6
1.0
   2.0239427193777169  -10.7197374471328626    0.0000000000000000
   2.0239427193777169   10.7197374471328626    0.0000000000000000
   0.0000000000000000    0.0000000000000000    4.1132530373562943
Tb Cu Ge
2 1 6
direct
   0.0045712554483527    0.9954274009475566    0.0000000000000000 Tb
   0.6685537184902035    0.3314449379057059    0.0000000000000000 Tb
   0.2245935964551894    0.7754050599407203    0.4999996307841668 Cu
   0.2846937774874510    0.7153048789084586    0.0000000000000000 Ge
   0.4011237800730362    0.5988748763228730    0.0000000000000000 Ge
   0.5437338236525822    0.4562648327433275    0.4999996307841668 Ge
   0.1161818521337682    0.8838168042621413    0.4999996307841668 Ge
   0.9021627679965787    0.0978358883993303    0.4999996307841668 Ge
   0.7853792465391268    0.2146194098567824    0.4999996307841668 Ge
