Rb2 Nd1 Au1 Cl6
1.0
   6.6291923773943768   -0.0000000000000000    3.8273659050198545
   2.2097307924647924    6.2500629033822994    3.8273659050198545
   0.0000000000000000   -0.0000000000000000    7.6547318100397090
Rb Nd Au Cl
2 1 1 6
direct
   0.7499997575090840    0.7499996515976305    0.7500009205424077 Rb
   0.2499999191696946    0.2499998838658768    0.2500003068474693 Rb
   0.0000000000000000    0.0000000000000000    0.0000000000000000 Nd
   0.4999998383393893    0.4999997677317537    0.5000006136949385 Au
   0.7497469325935470    0.2502526911117703    0.2502534712962193 Cl
   0.2502527264510573    0.2502526911117703    0.7497473816839849 Cl
   0.2502527440852315    0.7497468443517371    0.7497477560936576 Cl
   0.2502527440852315    0.7497468443517371    0.2502534889303936 Cl
   0.7497469325935470    0.2502526911117703    0.7497477384594835 Cl
   0.7497469502277214    0.7497468443517371    0.2502538457058921 Cl
