Mg2 Mn3 In1 S8
1.0
   6.3497486763057234    0.0119131191951508    3.8358015526238431
   2.1736924357274265    6.0019457944409504    3.7786752189532566
  -0.0134532946218099    0.0599087463916613    7.4177625550047717
Mg Mn In S
2 3 1 8
direct
   0.8745620922140953    0.8745861951320164    0.8745869178598281 Mg
   0.1254382346804471    0.1254132225014484    0.1254136970506599 Mg
   0.5000009440709900    0.5000020589917658   -0.0000005006690527 Mn
   0.0000009091203168    0.5000009039801808    0.4999988278214795 Mn
   0.5000001431148408   -0.0000000654517318    0.4999974655172210 Mn
   0.4999989635917248    0.4999994283834424    0.5000015559957560 In
   0.7407977339802113    0.7407865313498619    0.7407807144962280 S
   0.2499534285313448    0.2499863894915767    0.7181495723301322 S
   0.2499526177734820    0.7181465378936001    0.2499927434656075 S
   0.7181603302796833    0.2499274406694202    0.2499273870278325 S
   0.7500482512969956    0.2818510938481867    0.7500099451502442 S
   0.2818418068522333    0.7500712403275490    0.7500734104194473 S
   0.2592037769238604    0.2592157481709972    0.2592158098512866 S
   0.7500461274208151    0.7500108202273315    0.2818520138767578 S
