Li3 Ni4 O4 F3
1.0
  -0.0000000000000000   -2.0417248747541605   -2.0417248747541605
   0.0000000000000000    2.0417248747541605   -2.0417248747541605
  14.8753064693029255    0.0000000000000000    2.0417248747541605
Li Ni O F
3 4 4 3
direct
   0.4964694662019366    0.4964694662019366    0.9929389324038732 Li
   0.3606737372421252    0.3606737372421252    0.7213464744866405 Li
   0.9285699079405682    0.9285699079405682    0.8571432034453743 Li
   0.0700951644872623    0.0700951644872623    0.1401893289769148 Ni
   0.6415224466264594    0.6415224466264594    0.2830472808195396 Ni
   0.2156194443578439    0.2156194443578439    0.4312378887180778 Ni
   0.7870467264970409    0.7870467264970409    0.5740958405606957 Ni
   0.5691876564080134    0.5691876564080134    0.1383787003802582 O
   0.1416808040348863    0.1416808040348863    0.2833606080721555 O
   0.7154610869507294    0.7154610869507294    0.4309255614656968 O
   0.2879542345776021    0.2879542345776021    0.5759074691575942 O
   0.9946941319807114    0.9946941319807113    0.9893916515256546 F
   0.8624456839004322    0.8624456839004322    0.7248947553650942 F
   0.4285711017238786    0.4285711017238786    0.8571432034453743 F
