Zn2 Fe2 F8
1.0
  -5.0794519032770298    0.0071537819976628    0.1488028191856070
  -0.0080198033913305   -5.2541968973167483   -0.0074060750689166
   2.3591420499190288    2.6162623434920107    5.0715542044882422
Zn Fe F
2 2 8
direct
   0.2653425173556078    0.2213916296178187    0.5094962844849636 Zn
   0.7654080763157521    0.7887402856311005    0.5095457214842973 Zn
  -0.0148663883547881    0.5310506283148528    0.0188856676282186 Fe
   0.4851762147815527   -0.0114758388723680    0.0189492668679886 Fe
   0.3664111483851130    0.8241751700698016    0.2639919047602888 F
   0.1798511926996728    0.5471089161614793    0.7711547952398381 F
   0.6846210056837503    0.2036024996581897    0.7083899999111847 F
   0.6799212341167790    0.7247697964661762    0.7712476870352081 F
   0.7669780396322564    0.4241408434532949    0.2161336680855808 F
   0.8664305027564813    0.9404078081608818    0.2640190984787138 F
   0.2669794203727223    0.2926134002362461    0.2161201503240798 F
   0.1846559539261733    0.0055046584034100    0.7084464787940233 F
