Sr2 Tl1 In1
1.0
   4.9638747389170863    0.0000000000000000    2.8658940004780531
   1.6546249129723620    4.6799857687115054    2.8658940004780531
  -0.0000000000000000    0.0000000000000000    5.7317880009561062
Sr Tl In
2 1 1
direct
   0.2499994385496966    0.2500002260310557    0.2499999059277763 Sr
   0.7499983156490900    0.7500006780931670    0.7499997177833286 Sr
   0.0000000000000000    0.0000000000000000    0.0000000000000000 Tl
   0.4999988770993933    0.5000004520621113    0.4999998118555526 In
