Er2 Fe4 Si9
1.0
   3.9478895294126430   -0.0000000013350176    0.0000000000000002
  -1.9739451805851540    3.4189723836981520    0.0000000000000002
   0.0000000000000000    0.0000000000000000   15.9775320327781181
Er Fe Si
2 4 9
direct
   0.6666662231446505    0.3333331011945669    0.2411268859030161 Er
   0.3333323268943436    0.6666662019986533    0.7588729868696927 Er
   0.6666662231446505    0.3333331011945669    0.5899926396234205 Fe
   0.3333323268943436    0.6666662019986533    0.4100072331492887 Fe
   0.3333323268943436    0.6666662019986533    0.1020311466511074 Fe
   0.6666662231446505    0.3333331011945669    0.8979687261216016 Fe
   0.6666662231446505    0.3333331011945669    0.4333029082454419 Si
   0.3333323268943436    0.6666662019986533    0.5666969645272667 Si
   0.3333323268943436    0.6666662019986533    0.9571189706800218 Si
   0.6666662231446505    0.3333331011945669    0.0428809020926872 Si
   0.0000000000000000    0.0000000000000000    0.6521915957165800 Si
   0.0000000000000000    0.0000000000000000    0.3478082770561293 Si
   0.0000000000000000    0.0000000000000000    0.1282246687248280 Si
   0.0000000000000000    0.0000000000000000    0.8717752040478809 Si
   0.0000000000000000    0.0000000000000000    0.4999999363863545 Si
