Dy2 Zn1 Ga1
1.0
   0.0000019629123506    3.5485002881820087    3.5484983252696680
   3.5484963623573020    0.0000029443685259    3.5484973438134930
   3.5484973438134855    3.5485002881820167    0.0000019629123428
Dy Zn Ga
2 1 1
direct
   0.4999996136640776    0.5000007199990838    0.4999998902479267 Dy
   0.0000000000000000    0.0000000000000000    0.0000000000000000 Dy
   0.7500004204953413    0.7500020800000633    0.7500008353716681 Zn
   0.2499998068320388    0.2500003599995419    0.2499999451239634 Ga
