Bi2 I6
1.0
   7.5759089368843409   -0.0000000214008138   -0.0000000000000000
  -3.7879540031535397    6.5609300767904921   -0.0000000000000000
   0.0000000000000000    0.0000000000000000    6.9910333492553702
Bi I
2 6
direct
   0.6666672688240002    0.3333329982731775    0.0000000000000000 Bi
   0.3333333956889989    0.6666669932844731    0.0000000000000000 Bi
   0.3313321910409879    0.0000000010483791    0.7406049966753240 I
   0.0000001730931182    0.3313321401006786    0.7406049966753240 I
   0.0000003494604891    0.6686678481951149    0.2593945242459470 I
   0.6686683003788931    0.6686678504085929    0.7406049966753240 I
   0.6686679509184037    0.0000000022134780    0.2593945242459470 I
   0.3313323641341060    0.3313321411490575    0.2593945242459470 I
