Ca1 Cr2 N2
1.0
   3.1919555197995924    0.0000000000000000    0.0000000000000000
   0.0000000000000000    3.1919673079311677    0.0000000000000000
   0.0000000000000000    0.0000000000000000    7.2481822124779427
Ca Cr N
1 2 2
direct
   0.0000000000000000    0.0000000000000000    0.7500088239272952 Ca
   0.5000007017955576    0.5000004216942989    0.0975937246754667 Cr
   0.5000007017955576    0.5000004216942989    0.4023999030693909 Cr
   0.0000000000000000    0.5000004216942989    0.5207731299477846 N
   0.5000007017955576    0.0000000000000000    0.9792235789538223 N
