Be2 Hg1 Te1
1.0
   3.5835523259668873    0.0000000000000000    0.0000000000000000
   0.0000000000000000    3.5835523259668873   -0.0000000000000000
   0.0000000000000000    0.0000000000000000    5.9586736735588381
Be Hg Te
2 1 1
direct
   0.0000000000000000    0.0000000000000000    0.8608581813772914 Be
   0.4999996754663145    0.4999996754663145    0.3218581320592798 Be
   0.0000000000000000    0.0000000000000000    0.4067281220418956 Hg
   0.4999996754663145    0.4999996754663145    0.9105540232562044 Te
