Ca2 Zn6
1.0
   4.7380534296415426    0.0000000000000000    0.0000000000000000
  -0.0000000000000000    4.7380534296415426    0.0000000000000000
  -0.0000000000000000    0.0000000000000000    6.6911654508762055
Ca Zn
2 6
direct
   0.0000000000000000    0.0000000000000000    0.0000000000000000 Ca
   0.4999996380748346    0.4999996380748346    0.5000003399350851 Ca
   0.4999996380748346    0.4999996380748346    0.0000000000000000 Zn
   0.4999996380748346    0.0000000000000000    0.2500001699675425 Zn
   0.0000000000000000    0.4999996380748346    0.2500001699675425 Zn
   0.0000000000000000    0.0000000000000000    0.5000003399350851 Zn
   0.0000000000000000    0.4999996380748346    0.7500005099026277 Zn
   0.4999996380748346    0.0000000000000000    0.7500005099026277 Zn
