Li3 Fe4 Cu1 O8
1.0
   5.0370198071511370    0.0107262105713852    2.8497843428566623
   1.7110177021437305    4.7375206608707154    2.8497843428566614
  -0.0412772412006312   -0.0290446713022404    5.8019915459826947
Li Fe Cu O
3 4 1 8
direct
   0.0000002491652312    0.4999999268627358   -0.0000004607159548 Li
  -0.0000004426287069    0.0000004930448223    0.4999998420083179 Li
   0.4999998800769926    0.0000003970803947   -0.0000005103880436 Li
   0.4999996866135168    0.5000008169879528    0.4999988709043195 Fe
   0.0000000000000000    0.0000000000000000    0.0000000000000000 Fe
  -0.0000001934634757    0.5000004199075582    0.4999993812923630 Fe
   0.4999994374482857    0.0000008901252170    0.4999993316202743 Fe
   0.5000001292422238    0.5000003239431304   -0.0000009711039985 Cu
   0.2488101555267893    0.2488107749020898    0.2792037061192429 O
   0.2595411187931908    0.7675985823719146    0.7329821748324984 O
   0.7675970621001299    0.2595427418238574    0.7329821243600613 O
   0.7496686705438990    0.7496694597185568    0.2657173706837346 O
   0.2503307026831348    0.2503321742573489    0.7342803711249037 O
   0.2324023111269040    0.7404588921520479    0.2670156174485776 O
   0.7404582544338426    0.2324030516039912    0.2670155669761406 O
   0.7511892177002444    0.7511908590738157    0.7207940356893959 O
