H16 N4 Cl4 O4
1.0
   0.0000000000000000    6.8512447733526791   -0.0126000208182571
   6.0078780462381012    0.0000000000000000    0.0000000000000000
   0.0000000000000000   -3.9754263908782783   -6.5019029184446504
H N Cl O
16 4 4 4
direct
   0.2605418864899885    0.4827663034924077    0.3190915829807567 H
   0.0760975318477962    0.1737648494223448    0.1318210300380136 H
   0.9239013771909319    0.6737650120223416    0.3681787444442472 H
   0.0760971386729728    0.3262353131776518    0.6318208063699068 H
   0.2145529981802297    0.4723371188717863    0.8610056139563803 H
   0.7854451245088518    0.9723372814717827    0.6389937131896674 H
   0.7854455176836753    0.5276632063282070    0.1389939368577736 H
   0.2145533913550531    0.0276630437282102    0.3610058376244873 H
   0.9239009840161085    0.8262354757776481    0.8681785207761411 H
   0.6280727116135082    0.8497417320449808    0.7285818049679508 H
   0.6280731047883316    0.6502587557550089    0.2285820286360570 H
   0.3719258042503972    0.1502585931550122    0.2714177458462039 H
   0.2605414933151650    0.0172338591075888    0.8190913593126494 H
   0.7394566293739163    0.5172340217075854    0.6809079678333984 H
   0.7394570225487398    0.9827664660924044    0.1809081915015043 H
   0.3719254110755738    0.3497415694449846    0.7714175221780971 H
   0.2233511847149264    0.1635443953010679    0.2785663894007828 N
   0.7766477243238011    0.6635445579010644    0.2214333850814782 N
   0.7766473311489777    0.8364559298989254    0.7214331614133718 N
   0.2233507915401030    0.3364557672989283    0.7785661657326761 N
   0.7392555998266431    0.3110518344664833    0.8914795787543767 Cl
   0.2607425228624375    0.8110519970664801    0.6085197483916711 Cl
   0.2607429160372609    0.6889484907335096    0.1085199720597775 Cl
   0.7392559930014666    0.1889483281335133    0.3914798024224833 Cl
   0.7622444318525552    0.8555582855996240    0.1063190620225528 O
   0.2377544771861730    0.3555581229996267    0.3936807124597078 O
   0.7622440386777318    0.6444422022003656    0.6063188383544461 O
   0.2377540840113496    0.1444420396003697    0.8936804887916017 O
