Sc1 Al3
1.0
   4.0311814619447750    0.0000000000000000   -0.0000000000000000
   0.0000000000000000    4.0311814619447750    0.0000000000000000
  -2.0155907309723875   -2.0155907309723875    4.4281285516044546
Sc Al
1 3
direct
   0.0000000000000000    0.0000000000000000    0.0000000000000000 Sc
   0.2500000817724423    0.7499999004428758    0.5000001635448846 Al
   0.7499999004428758    0.2500000817724423    0.5000001635448846 Al
   0.4999998186704334    0.4999998186704334    0.0000000000000000 Al
