Mo4 S8
1.0
   5.8825723943277097    0.0156679203858863    3.3707162898552374
   1.9607795162580244    5.5461929610765299    3.3707162919386806
   0.0220955175884735    0.0156679216615291    6.7798168558329577
Mo S
4 8
direct
   0.3961396461345522    0.3961394718507777    0.8287468681658018 Mo
   0.8287462929720611    0.3961394725695543    0.3961400021299266 Mo
   0.3961394820552835    0.8287462322285447    0.3961400274807148 Mo
   0.3961761288544941    0.3961760690956500    0.3961764897359406 Mo
   0.6398621827235615    0.6398620862077511    0.6398627655830217 S
   0.0975584303429431    0.6398867721427217    0.6398873149504657 S
   0.6398869316791133    0.0975583350650123    0.6398872831698378 S
   0.1347016142756110    0.6131097046103060    0.1347019410949563 S
   0.1346678720057544    0.1346678516924702    0.1346679946758896 S
   0.1347017957271473    0.1347016487516411    0.6131100857626515 S
   0.6131097260229219    0.1347016495466714    0.1347019130610972 S
   0.6398867259847474    0.6398867730438453    0.0975587445153960 S
