Rb1 Hg5 Cl11
1.0
   8.6919678301785659   -0.0229114852573509    2.8817275977052956
  -2.6739143698530055    8.2704904110765636    2.8817275977052965
  -0.0760457360368868   -0.1042186172108729    6.5202832252197460
Rb Hg Cl
1 5 11
direct
   0.0000000000000000    0.0000000000000000    0.0000000000000000 Rb
   0.3552834534555053    0.0158133845541360    0.3128865764742480 Hg
   0.6447167989421446    0.9841865806710023    0.6871135695684982 Hg
   0.9841868698836779    0.6447165251902960    0.6871135627353762 Hg
   0.0158133825139718    0.3552834400348422    0.3128865833073702 Hg
   0.5000003985558140    0.5000000680885338    0.0000001621943053 Hg
   0.4164582692491765    0.1709665748800024    0.9167149275127712 Cl
   0.5835419831484732    0.8290333903451363    0.0832852185299750 Cl
  -0.0000002723569892   -0.0000000854759647    0.4999999108270677 Cl
   0.1467574284848608    0.7012049623729493    0.2934410659302431 Cl
   0.7012051455455022    0.1467572705640783    0.2934410547698807 Cl
   0.2987951068521471    0.8532426946610596    0.7065590912728651 Cl
   0.1709664207812001    0.4164584121672963    0.9167149324542253 Cl
   0.3498635495441659    0.3498634678098712    0.3999940400658085 Cl
   0.6501367028534843    0.6501364974152675    0.6000061059769379 Cl
   0.8532428239127887    0.2987950028521886    0.7065590801125027 Cl
   0.8290338316164502    0.5835415530578417    0.0832852135885209 Cl
