Co4 Sn2
1.0
   2.1477947985629768   -3.7200906475938988   -0.0000000000000000
   2.1477947985629768    3.7200906475938988    0.0000000000000000
   0.0000000000000000    0.0000000000000000    5.2107332581014214
Co Sn
4 2
direct
   0.3333319119227675    0.6666658538959317    0.2499998436831603 Co
   0.0000000000000000    0.0000000000000000    0.0000000000000000 Co
   0.0000000000000000    0.0000000000000000    0.4999996873663207 Co
   0.6666658538959318    0.3333319119227674    0.7499995310494810 Co
   0.6666658538959318    0.3333319119227674    0.2499998436831603 Sn
   0.3333319119227675    0.6666658538959317    0.7499995310494810 Sn
