Ho2 Co4
1.0
  -3.5482894496494262   -3.5482894496494262   -0.0000000000000000
  -3.5482894496494262    0.0000000000000000   -3.5482894496494262
   0.0000000000000000   -3.5482894496494262   -3.5482894496494262
Ho Co
2 4
direct
   0.7500001163272998    0.7500001163272998    0.7500001163272998 Ho
   0.0000000000000000    0.0000000000000000    0.0000000000000000 Ho
   0.8750001357151831    0.3750000581636500    0.3750000581636499 Co
   0.3750000581636499    0.8750001357151831    0.3750000581636499 Co
   0.3750000581636499    0.3750000581636499    0.8750001357151831 Co
   0.3750000581636499    0.3750000581636499    0.3750000581636499 Co
