Zr4 H24 N4 O4 F20
1.0
  10.0513891141425695    0.0000000000000000    2.2883739883202763
   0.0000000000000000    7.6411607529831533    0.0000000000000000
   0.0530053654072909    0.0000000000000000    6.8164141985621125
Zr H N O F
4 24 4 4 20
direct
   0.5424382870718835    0.5536236130575705    0.7343729781972471 Zr
   0.0424380088010957    0.9463762391278806    0.2343736721440480 Zr
   0.4575622694696927    0.4463762883993979    0.2656256339091506 Zr
   0.9575625477404817    0.0536236623290860    0.7656249399623495 Zr
   0.7126733669395792    0.8793129304330065    0.3040321152546163 H
   0.7873270027113383    0.3793129797045220    0.1959665750155531 H
   0.2873271896019977    0.1206869710239613    0.6959664968517814 H
   0.0539950095577420    0.6502851103390259    0.7767868129084308 H
   0.5539948226670830    0.8497147418464250    0.2767868910722023 H
   0.9460055469838344    0.3497147911179418    0.2232117991979671 H
   0.4460057338744940    0.1502851596105419    0.7232117210341956 H
   0.1090198829665606    0.4447352525138717    0.8124701492190040 H
   0.6090196960759019    0.0552646982146121    0.3124702273827737 H
   0.8909806735750152    0.5552646489430959    0.1875284628873954 H
   0.3909808604656754    0.9447352032423552    0.6875283847236225 H
   0.2126735538302386    0.6206869217524446    0.8040320370908451 H
   0.6686700185322483    0.9572536876525273    0.0955288378231847 H
   0.1686702054229073    0.5427461645329239    0.5955287596594138 H
   0.8099544016127057    0.4442056017132369    0.7381254813929244 H
   0.3099541233419175    0.0557943490152469    0.2381261753397257 H
   0.6900464331996594    0.9442055524417207    0.7618724367666724 H
   0.8147010001029187    0.6508636182221956    0.7001539127704979 H
   0.1900461549288706    0.5557942997437304    0.2618731307134731 H
   0.1852995564386584    0.3491362832347713    0.2998446993359001 H
   0.6852998347094464    0.1508636674937124    0.7998440053890988 H
   0.3313305380093286    0.0427462138044400    0.9044697742832126 H
   0.8313303511186692    0.4572537369240433    0.4044698524469845 H
   0.3147007218321300    0.8491362339632555    0.2001546067172991 H
   0.1350923055983758    0.5662683461152630    0.7496165450743421 N
   0.3649084378338600    0.0662683953867798    0.7503819888682843 N
   0.8649082509432016    0.4337315553417039    0.2503820670320555 N
   0.6350921187077158    0.9337315060701881    0.2496166232381138 N
   0.2285071999067781    0.4590944774433740    0.3316442702718574 O
   0.7285074781775666    0.0409054732851100    0.8316435763250563 O
   0.7714933566347987    0.5409054240135940    0.6683543418345403 O
   0.2714930783640105    0.9590944281718571    0.1683550357813412 O
   0.0881694585863711    0.8991191216375263    0.5161763178860359 F
   0.5881692716957118    0.6008807305479248    0.0161763960498065 F
   0.1253515707480666    0.2013685363599328    0.6808488039314448 F
   0.6253513838574066    0.2986314143685513    0.1808488820952158 F
   0.8746489857935107    0.7986313650970348    0.3191498081749528 F
   0.3746491726841696    0.7013684870884163    0.8191497300111817 F
   0.8900631152804429    0.3076884983983768    0.8273147919794910 F
   0.3900628370096541    0.1923114523301065    0.3273154859262914 F
   0.1099374412611341    0.6923114030585894    0.1726838201269069 F
   0.6099377195319224    0.8076884491268617    0.6726831261801058 F
   0.3978245902447318    0.7071723585521624    0.3070233500580872 F
   0.1021756880260564    0.2071724078236785    0.1929759559951119 F
   0.6021759662968456    0.2928275429048053    0.6929752620483101 F
   0.8979368314249341    0.0676159886585341    0.0883505423845953 F
   0.3979370183155934    0.4323839620699494    0.5883504642208240 F
   0.1020637251166427    0.9323839127984336    0.9116480697218025 F
   0.6020635382259834    0.5676159393870176    0.4116481478855736 F
   0.4118312848458650    0.3991191709090420    0.9838222160565906 F
   0.8978248685155195    0.7928274936332886    0.8070226561112868 F
   0.9118310979552056    0.1008807798194414    0.4838222942203630 F
