Ba4 Mo1 Se1
1.0
   0.0000000000000000    4.9219565989985270    4.9219565989985270
   4.9219565989985270   -0.0000000000000000    4.9219565989985270
   4.9219565989985270    4.9219565989985270    0.0000000000000000
Ba Mo Se
4 1 1
direct
   0.1243546121163963    0.6252155899516472    0.6252155899516472 Ba
   0.6252155899516472    0.6252155899516472    0.6252155899516472 Ba
   0.6252155899516472    0.1243546121163963    0.6252155899516472 Ba
   0.6252155899516472    0.6252155899516472    0.1243546121163963 Ba
   0.2500001727464173    0.2500001727464172    0.2500001727464172 Mo
   0.0000000000000000    0.0000000000000000    0.0000000000000000 Se
