Sr2 Sn1 O4
1.0
   3.9138519440345747   -0.0000000007592292   -1.1929680737351178
  -0.3636244833636196    3.8969231239886000   -1.1929680753784604
  -0.0132616030708029   -0.0145568067936327    6.9731949287298001
Sr Sn O
2 1 4
direct
   0.6461209717203252    0.6461197458666806    0.2922403973731444 Sr
   0.3538799309179217    0.3538786280901934    0.7077582198152107 Sr
   0.0000000000000000    0.0000000000000000    0.0000000000000000 Sn
   0.8357621124793517    0.8357601884518576    0.6715217989468968 O
   0.1642387901588950    0.1642381855050160    0.3284768182414580 O
   0.0000005350862204    0.4999995987424368   -0.0000001151061262 O
   0.4999997509805037   -0.0000000005780329   -0.0000001808201746 O
