Mg1 H8 Cl2 O12
1.0
   2.2560707614728779    0.0000000000000000   -5.6593910768946252
  -5.5524643666159426   -3.9101220127790275    0.0767409277782396
  -5.5524643666159426    3.9101220127790275    0.0767409277782396
Mg H Cl O
1 8 2 12
direct
   0.0000000000000000    0.0000000000000000    0.0000000000000000 Mg
   0.7512322969972792    0.2478164537800645    0.0445802653098710 H
   0.7512322969972792    0.0445802653098710    0.2478164537800645 H
   0.8654084743667229    0.6178409347652852    0.2807446553332593 H
   0.1345905256332796    0.7192553446667398    0.3821580652347102 H
   0.8654084743667229    0.2807446553332594    0.6178409347652851 H
   0.1345905256332796    0.3821580652347103    0.7192553446667397 H
   0.2487677030027209    0.9554197346901293    0.7521845462199398 H
   0.2487677030027209    0.7521845462199402    0.9554197346901292 H
   0.4046966460965433    0.3018823696666548    0.3018823696666548 Cl
   0.5953043539034613    0.6981176303333457    0.6981176303333455 Cl
   0.6832650844213263    0.5067720067044225    0.8103157920785424 O
   0.0000009999999975    0.2577167068009841    0.7422842931990130 O
   0.3336936855444678    0.6410532991597570    0.6410532991597567 O
   0.6832650844213263    0.8103157920785428    0.5067720067044221 O
   0.3167339155786760    0.1896842079214572    0.4932279932955774 O
   0.8182371590249553    0.1216796710903577    0.1216796710903577 O
   0.0000009999999975    0.7422842931990131    0.2577167068009840 O
   0.3167339155786760    0.4932279932955775    0.1896842079214571 O
   0.3372582928952548    0.1594806956614454    0.1594806956614454 O
   0.6627427071047436    0.8405203043385521    0.8405203043385518 O
   0.6663073144555297    0.3589467008402428    0.3589467008402427 O
   0.1817618409750468    0.8783203289096427    0.8783203289096425 O
