Pr4 Sn2 S10
1.0
   4.0118676416497863    0.0000000000000000    0.0000000000000000
   0.0000000000000000    7.8743959369805872    0.0000000000000000
   0.0000000000000000   -0.0000000000000000   11.3294424474471409
Pr Sn S
4 2 10
direct
   0.5000000000000000    0.4309000712276726    0.1695920171824918 Pr
   0.5000000000000000    0.0690999287723273    0.6695920171824916 Pr
   0.5000000000000000    0.5690999287723274    0.8304079828175084 Pr
   0.5000000000000000    0.9309000712276726    0.3304079828175082 Pr
   0.0000000000000000    0.5000000000000000    0.5000000000000000 Sn
   0.0000000000000000    0.0000000000000000    0.0000000000000000 Sn
   0.0000000000000000    0.3511659074995461    0.7031987987552735 S
   0.0000000000000000    0.1488340925004539    0.2031987987552734 S
   0.0000000000000000    0.0000000000000000    0.5000000000000000 S
   0.5000000000000000    0.8106626867266469    0.0731168857657645 S
   0.0000000000000000    0.5000000000000000    0.0000000000000000 S
   0.0000000000000000    0.6488340925004538    0.2968012012447265 S
   0.5000000000000000    0.3106626867266467    0.4268831142342353 S
   0.5000000000000000    0.6893373132733532    0.5731168857657645 S
   0.5000000000000000    0.1893373132733533    0.9268831142342355 S
   0.0000000000000000    0.8511659074995462    0.7968012012447265 S
