Sr1 P2 Os2
1.0
   3.8836816485762520   -0.0000000002212166   -1.3077630508306888
  -0.4403668887255609    3.8586347520537387   -1.3077630540559648
  -0.0248991991466058   -0.0279018205017165    6.3466493854785453
Sr P Os
1 2 2
direct
   0.0000000000000000    0.0000000000000000    0.0000000000000000 Sr
   0.3529748487400298    0.3529748487430119    0.7059496974813868 P
   0.6470251512599701    0.6470251512569881    0.2940503025186130 P
   0.2500000000000000    0.7500000000000000    0.5000000000000000 Os
   0.7500000000000001    0.2500000000000000    0.5000000000000000 Os
