Er3 Tm1
1.0
   3.4806930482853957    0.0000000061483935    0.0000000000000002
  -1.7403470512378552    3.0143682982724567    0.0000000000000002
  -0.0000000000000000   -0.0000000000000000   11.2055581338946872
Er Tm
3 1
direct
   0.3333333333333358    0.6666666666666643    0.2496441873474047 Er
   0.0000000000000000    0.0000000000000000    0.4999999999999999 Er
   0.6666666666666643    0.3333333333333357    0.7503558126525952 Er
   0.0000000000000000    0.0000000000000000    0.0000000000000000 Tm
