Li4 Cr5 Sb1 O12
1.0
   5.1718328712543773   -0.0045488773756617    0.1686687465756803
  -2.6009993189106870    4.4701983664786153    0.1686687203068739
   0.3287681126548300    0.5710846406554276   10.2241041771747483
Li Cr Sb O
4 5 1 12
direct
   0.1122106650337398    0.4506044283455752    0.7107064192441153 Li
   0.5493955716528384    0.8877893349658326    0.2892935807595963 Li
   0.4506044283471616    0.1122106650341675    0.7107064192404037 Li
   0.8877893349662604    0.5493955716544250    0.2892935807558842 Li
   0.1622514102063385    0.8377485897940440    0.5000000000004701 Cr
   0.3351230470382739    0.6648769529604708    0.0000000000000104 Cr
   0.4999999999999999    0.5000000000000000    0.4999999999999999 Cr
   0.6648769529617262    0.3351230470395294   -0.0000000000000104 Cr
   0.8377485897936617    0.1622514102059564    0.4999999999995297 Cr
   0.0000000000000000    0.0000000000000000    0.0000000000000000 Sb
   0.8081773696718738    0.4617902286549981    0.6031103364267528 O
   0.5382097713438903    0.1918226303271220    0.3968896635735000 O
   0.8516443879985215    0.8516443879991201    0.3938807216590778 O
   0.6871033358787205    0.6871033358785258    0.9010303391179810 O
   0.3128966641212796    0.3128966641214742    0.0989696608820191 O
   0.9739711727173517    0.6348702418975951    0.1021503911301048 O
   0.4617902286561092    0.8081773696728786    0.6031103364265000 O
   0.1918226303281265    0.5382097713450018    0.3968896635732475 O
   0.3651297580988840    0.0260288272808390    0.8978496088703941 O
   0.6348702419011161    0.9739711727191611    0.1021503911296055 O
   0.1483556120014788    0.1483556120008797    0.6061192783409217 O
   0.0260288272826482    0.3651297581024051    0.8978496088698955 O
