Li5 Cu1 F6
1.0
   5.0774034371737500   -0.0167364572213584   -0.0136618997045607
   2.5104931234370351    4.4133586426165907    0.0136619084523317
  -0.8951284527927078    1.5448544734853407    4.7725995117814026
Li Cu F
5 1 6
direct
   0.1658810208360128    0.1658810208365191    0.4999999999998783 Li
   0.3330649438235081    0.3330649438233583    0.0000000000000182 Li
   0.5000000000000001    0.5000000000000000    0.5000000000000000 Li
   0.6669350561764917    0.6669350561766418   -0.0000000000000182 Li
   0.8341189791639873    0.8341189791634811    0.5000000000001218 Li
   0.0000000000000000    0.0000000000000000    0.0000000000000000 Cu
   0.0848871999000803    0.5579750133975687    0.2543093096702023 F
   0.5579750133986420    0.0848871998995145    0.7456906903303231 F
   0.2688486530759350    0.7311513469237386    0.7270528297972499 F
   0.7311513469240651    0.2688486530762613    0.2729471702027502 F
   0.4420249866013582    0.9151128001004855    0.2543093096696768 F
   0.9151128000999197    0.4420249866024309    0.7456906903297978 F
