La2 P6 O18
1.0
   7.1336550771955540    0.0248675680396822    0.0000000000000000
  -1.8415966350167441    6.8918919801749707    0.0000000000000000
  -0.0000000000000000   -0.0000000000000000    7.3766732820475376
La P O
2 6 18
direct
   0.1275340418564159    0.1275340418564118    0.2500000000000000 La
   0.8724659581435841    0.8724659581435883    0.7499999999999999 La
   0.7473407314948685    0.7473407314948670    0.2500000000000000 P
   0.2526592685051318    0.2526592685051338    0.7499999999999999 P
   0.3173589104310764    0.6659499801738948    0.2030685227190840 P
   0.6826410895689230    0.3340500198261054    0.7030685227190842 P
   0.6659499801738955    0.3173589104310768    0.2969314772809158 P
   0.3340500198261043    0.6826410895689230    0.7969314772809158 P
   0.1736652255594246    0.7811695395674281    0.7943066706063642 O
   0.8263347744405757    0.2188304604325710    0.2943066706063642 O
   0.7811695395674186    0.1736652255594196    0.7056933293936356 O
   0.2188304604325805    0.8263347744405809    0.2056933293936359 O
   0.1343189334413947    0.1779936564398571    0.9170870044822539 O
   0.2531454546512611    0.4706797028248851    0.7052135994099543 O
   0.8220063435601421    0.8656810665586098    0.0829129955177459 O
   0.6213306148756520    0.3786693851243524    0.4999999999999999 O
   0.3786693851243483    0.6213306148756480    0.0000000000000000 O
   0.4771225068144725    0.2203966158648697    0.2105362766731248 O
   0.5228774931855273    0.7796033841351305    0.7105362766731242 O
   0.2203966158648735    0.4771225068144661    0.2894637233268753 O
   0.7796033841351269    0.5228774931855341    0.7894637233268755 O
   0.5293202971751150    0.7468545453487392    0.2947864005900462 O
   0.4706797028248851    0.2531454546512605    0.7947864005900455 O
   0.7468545453487391    0.5293202971751153    0.2052135994099539 O
   0.1779936564398583    0.1343189334413904    0.5829129955177461 O
   0.8656810665586052    0.8220063435601429    0.4170870044822543 O
