Pr1 Cu3 Ru4 O12
1.0
   6.1233308232909547   -0.0000000000062120   -2.1649243737627017
  -3.0616654106327732    5.3029600493309328   -2.1649243737627017
  -0.0000000000035865   -0.0000000000062120    6.4947731227177528
Pr Cu Ru O
1 3 4 12
direct
   0.0000000000000000    0.0000000000000000    0.0000000000000000 Pr
   0.5000000000000000    0.0000000000000000    0.5000000000000000 Cu
   0.0000000000000000    0.5000000000000000    0.5000000000000000 Cu
   0.5000000000000000    0.5000000000000000   -0.0000000000000000 Cu
   0.0000000000000000    0.0000000000000000    0.5000000000000000 Ru
   0.5000000000000000    0.0000000000000000   -0.0000000000000000 Ru
   0.0000000000000000    0.5000000000000000   -0.0000000000000000 Ru
   0.5000000000000000    0.5000000000000000    0.4999999999999999 Ru
   0.1330797791167498    0.8279483132665529    0.3051314658501985 O
   0.5228168474163548    0.8279483132665516    0.6948685341498038 O
   0.3051314658501964    0.4771831525836451    0.1720516867334484 O
   0.6948685341498018    0.8669202208832503    0.1720516867334470 O
   0.3051314658501985    0.1330797791167497    0.8279483132665529 O
   0.8279483132665529    0.3051314658501985    0.1330797791167496 O
   0.1720516867334484    0.3051314658501964    0.4771831525836450 O
   0.1720516867334470    0.6948685341498018    0.8669202208832502 O
   0.8669202208832503    0.1720516867334470    0.6948685341498017 O
   0.8279483132665516    0.6948685341498038    0.5228168474163547 O
   0.6948685341498037    0.5228168474163548    0.8279483132665515 O
   0.4771831525836450    0.1720516867334484    0.3051314658501963 O
