Ca9 Si3 O15
1.0
   6.5881083620093506   -0.0235780657734164    6.6732267496739448
   2.7238193994388475    5.9987098196407240    6.6732267541432222
  -0.0367443585021220   -0.0235780652493088    9.3773009882337046
Ca Si O
9 3 15
direct
   0.9989935537347941    0.4978916155823769    0.4978916155823984 Ca
   0.2539098460258780    0.7051772698432591    0.7051772698432213 Ca
   0.7051772698432078    0.7051772698432599    0.2539098460258921 Ca
   0.2921452577319653    0.7435388760422029    0.2921452577319697 Ca
   0.4978916155823950    0.4978916155823778    0.9989935537347951 Ca
   0.2921452577319780    0.2921452577319837    0.7435388760421837 Ca
   0.7051772698432067    0.2539098460259352    0.7051772698432206 Ca
   0.4978916155823627    0.9989935537348329    0.4978916155823678 Ca
   0.7435388760421814    0.2921452577319841    0.2921452577319829 Ca
   0.7787101518507502    0.7787101518507579    0.7787101518507519 Si
   0.9925475639641553    0.9925475639641791    0.9925475639641622 Si
   0.2135033326970021    0.2135033326969911    0.2135033326969993 Si
   0.6731371220433972    0.0510221383573200    0.6731371220434037 O
   0.6137811958232657    0.6137811958232073    0.6137811958232507 O
   0.7636907372614131    0.1402561915849091    0.1402561915848662 O
   0.4997605123668105    0.4997605123668318    0.4997605123668160 O
   0.1402561915848487    0.1402561915848933    0.7636907372614046 O
   0.1471713316898650    0.1471713316897063    0.1471713316898246 O
   0.3609482260577374    0.9878022439931791    0.3609482260577438 O
   0.9878022439932294    0.3609482260578228    0.3609482260577691 O
   0.6731371220434118    0.6731371220433801    0.0510221383572244 O
   0.7139769564271166    0.7139769564270513    0.7139769564271000 O
   0.0510221383572112    0.6731371220433655    0.6731371220434037 O
   0.3840847055340986    0.3840847055340832    0.3840847055340946 O
   0.9263944885451227    0.9263944885449579    0.9263944885450803 O
   0.1402561915848410    0.7636907372613405    0.1402561915848426 O
   0.3609482260577475    0.3609482260578076    0.9878022439932254 O
