Y1 V1 O4
1.0
   5.3388055300012818   -1.9482265015977087   -0.6104126899190487
   5.3388055300012818    1.9482265015977087   -0.6104126899190487
  -0.9207120908487463    0.0000000000000000    4.1679400426334858
Y V O
1 1 4
direct
   0.2502953008964006    0.2502953008964007    0.7073442941402571 Y
   0.0014754984871571    0.0014754984871571    0.0851464213793319 V
   0.0157488294091033    0.0157488294091033    0.4881535367171556 O
   0.8259833622550188    0.8259833622550190    0.8182156930953410 O
   0.1747401512315097    0.1747401512315097    0.1423600071851566 O
   0.4812364627123029    0.4812364627123030    0.0087763566366004 O
