Nb4 Cr1 C2 S4
1.0
   3.3024004127773727    0.0000000000000000    0.0000000000000002
  -0.0000000000000003    5.6236432616925738    1.2267400253129239
  -0.0000000000000000    0.0152971066814604    8.6703174586137504
Nb Cr C S
4 1 2 4
direct
   0.4999999999999999    0.6230782706861835    0.6376700506191468 Nb
   0.0000000000000000    0.1204471462972199    0.6359780917739075 Nb
   0.4999999999999999    0.3769217293138165    0.3623299493808533 Nb
   0.0000000000000000    0.8795528537027799    0.3640219082260924 Nb
   0.0000000000000000    0.0000000000000000    0.0000000000000000 Cr
   0.0000000000000000    0.4999999999999999    0.5000000000000000 C
   0.4999999999999999    0.0000000000000000    0.5000000000000000 C
   0.4999999999999999    0.7729935220435308    0.1573392031355343 S
   0.0000000000000000    0.2742478371587603    0.1625429432738123 S
   0.4999999999999999    0.2270064779564691    0.8426607968644658 S
   0.0000000000000000    0.7257521628412399    0.8374570567261879 S
