Er4 Pt4 O14
1.0
  -5.0936967162920581    5.0936967162920581   -0.0000000000000000
   5.0936967162920581    0.0000000000000000    5.0936967162920581
   5.0936967162920581    5.0936967162920581   -0.0000000000000000
Er Pt O
4 4 14
direct
   0.5000000000000000    0.0000000000000000    0.0000000000000000 Er
   0.5000000000000000    0.0000000000000000    0.5000000000000000 Er
   0.5000000000000001    0.5000000000000000    0.5000000000000000 Er
   0.0000000000000000    0.5000000000000000    0.5000000000000000 Er
   0.5000000000000000    0.5000000000000000   -0.0000000000000000 Pt
   0.0000000000000000    0.0000000000000000    0.0000000000000000 Pt
   0.0000000000000000    0.5000000000000000   -0.0000000000000000 Pt
   0.0000000000000000    0.0000000000000000    0.5000000000000000 Pt
   0.3426404616101881    0.2500000000000000    0.9073595383898119 O
   0.6573595383898118    0.7500000000000000    0.6573595383898119 O
   0.0926404616101883    0.7500000000000000    0.0926404616101883 O
   0.0926404616101883    0.1852789232203817    0.6573595383898118 O
   0.3750000000000001    0.7500000000000000    0.3750000000000000 O
   0.9073595383898120    0.8147210767796185    0.3426404616101882 O
   0.6573595383898118    0.7500000000000000    0.0926404616101883 O
   0.9073595383898119    0.2500000000000000    0.9073595383898119 O
   0.6250000000000000    0.2500000000000000    0.6250000000000000 O
   0.3426404616101881    0.6852789232203815    0.9073595383898118 O
   0.6573595383898118    0.3147210767796184    0.0926404616101883 O
   0.9073595383898120    0.2500000000000000    0.3426404616101882 O
   0.3426404616101882    0.2500000000000000    0.3426404616101882 O
   0.0926404616101883    0.7500000000000000    0.6573595383898119 O
