Te2 Mo2 W2 Se4 S2
1.0
   3.3482967680985771    0.0000000000466703   -0.0000000000072459
  -1.6741488839652321    2.8997415612525530   -0.0014843051278940
  -0.0000000000755580   -0.0179499862328746   34.7968813050732635
Te Mo W Se S
2 2 2 4 2
direct
   0.3337724560989159    0.6675469121978389    0.7175744541477763 Te
   0.3332233544960415    0.6664477089921128    0.6077856638113741 Te
   0.3332520556725985    0.6665061113452327    0.0976931176526409 Mo
   0.3334120501470574    0.6668251002941380    0.4624647477308554 Mo
   0.6665674051067318    0.3331358102134331    0.2800522389217625 W
   0.6667495671880955    0.3334971343761587    0.6627332301647787 W
   0.6662707595374525    0.3325405190749028    0.0498579013599912 Se
   0.6663871493738416    0.3327722987476590    0.4145764098209125 Se
   0.6667626995666108    0.3335243991332051    0.1455790774320690 Se
   0.6669958374800687    0.3339916749601217    0.5103456306790272 Se
   0.3335386876876329    0.6670773753752839    0.3238498016437245 S
   0.3330679776449461    0.6661369552899148    0.2362357266350849 S
