Na2 Si4 Cu2 O11
1.0
   5.1833637962060157   -0.0104386690453959   -0.6858625625872590
  -1.2659179179038609    6.1800634212627994   -0.7517103764716045
  -0.0253011833759770   -0.0552582259642375    8.3539306410054319
Na Si Cu O
2 4 2 11
direct
   0.8728605264351487    0.3528612147070046    0.1932953278190314 Na
   0.1271395419174166    0.6471388531186706    0.8067046981417765 Na
   0.4085909072129909    0.6546351795824531    0.1871020603532832 Si
   0.0095365581257747    0.1341696919906271    0.6798239421660132 Si
   0.5914092361704574    0.3453647307354283    0.8128982929612218 Si
   0.2997595030417033    0.1105873820261067    0.0706158619031079 Si
   0.9904630853219621    0.8658293742561569    0.3201758467876603 Cu
   0.7002409092296954    0.8894127662003042    0.9293835178604432 Cu
   0.7683182662833947    0.2692463499499899    0.6724453792227360 O
   0.7269214564457543    0.5886999628083616    0.8968164809608699 O
   0.2316816178077676    0.7307541989549771    0.3275538169676471 O
   0.0012297792374849    0.0248014273073431    0.1837585168065331 O
   0.7157005526885692    0.6747878144569602    0.2798463779447714 O
   0.4023656719302869    0.8248405896738679    0.0530489866363534 O
   0.5976347156839928    0.1751583161685636    0.9469514732182426 O
   0.0000000707205794    0.0000002501956279    0.4999996565637063 O
   0.2842991613287303    0.3252130141638331    0.7201533318864904 O
  -0.0012297105951574    0.9751976420554767    0.8162419184631243 O
   0.2730781510134321    0.4113002416482481    0.1031835133369870 O
