Ca1 La1 Si4
1.0
   4.1809547771488154   -0.0032890270774806   -6.1192282169720746
  -0.4019174147233134    4.1615929712076296   -6.1192282169720755
   0.0029890446640707    0.0032890270785280    7.4111623842399466
Ca La Si
1 1 4
direct
   0.2500000000000000    0.7500000000000000    0.4999999999999999 Ca
   0.0000000000000000    0.0000000000000000    0.0000000000000000 La
   0.6642090825776311    0.1642090825776312    0.5000000000000000 Si
   0.5861806464838579    0.5861806464838579    0.0000000000000000 Si
   0.8357909174223690    0.3357909174223688    0.5000000000000000 Si
   0.4138193535161421    0.4138193535161421   -0.0000000000000001 Si
