Sm Sb 
 1.0000000000000000
     4.2571452641730172    0.0000000000000000    0.0000000000000003
    -0.0000000000000008   13.1256423528959942    2.8193520983531690
     0.0000000000000000    0.0564145820532616   14.9746655089564964
 Sm  Sb 
   8  20
Cartesian
  1.0642875000000001  8.8100389214335895 10.5386502158173521
  3.1928625000000004  4.3720110785664055  7.2553697841826432
  1.0642875000000001  5.1829586425506289 12.6567259013994029
  3.1928625000000004  7.9990913574493776  5.1372940986006030
  1.0642875000000001 12.5149960262143427  8.1146626786138203
  3.1928625000000004  0.6670539737856552  9.6793573213861812
  1.0642875000000001  8.7410348348693017 14.6738696474779857
  3.1928625000000004  4.4410151651306951  3.1201503525220109
  3.1928625000000004  3.8043958020678272 10.5504658307929322
  1.0642875000000001  1.8851689127109863 12.0574042141302016
  3.1928625000000004 11.2968810872890124  5.7366157858697955
  3.1928625000000004 11.2710281485665238 10.1994736093479066
  3.1928625000000004  7.5833825475524748 12.6250650822988479
  1.0642875000000001  1.9110218514334787  7.5945463906520940
  1.0642875000000001  9.3776541979321753  7.2435541692070693
  1.0642875000000001  5.5986674524475264  5.1689549177011545
  3.1928625000000004 11.1887592495453756 14.7577695523324373
  3.1928625000000004  7.6247539681739083  2.0045147800644525
  3.1928625000000004  1.8382571677502590  5.2182393552210797
  1.0642875000000001 11.3437928322497417 12.5757806447789235
  1.0642875000000001 12.7458681566147547  4.2209845876338283
  1.0642875000000001  5.5572960318260920 15.7895052199355437
  3.1928625000000004  3.7199891760393315 14.8670299627405562
  1.0642875000000001  9.4620608239606643  2.9269900372594426
  3.1928625000000004  7.5755870959635967  8.3309555439954419
  1.0642875000000001  5.6064629040364080  9.4630644560045614
  1.0642875000000001  1.9932907504546291  3.0362504476675656
  3.1928625000000004  0.4361818433852461 13.5730354123661705
