Ca  V  O 
 1.0000000000000000
     4.7392296529138296   -0.0243936735330408   -1.5255086278333976
    -0.8761821114410626    5.2074717522229408   -2.8052659738161627
    -0.0309370505331766   -0.0147033141864151    6.3552010120481546
 Ca  V   O  
   2   3   8
Cartesian
  2.5107265452741063  3.7765236182307591 -0.1465968486478185
  1.3213778393159070  1.3918616136292288  2.1710155688878197
  1.4934358761799980  5.1952697925300129 -3.5680221947300073
  4.1023729914369760  3.7606645645261061 -3.5645216516936258
  4.4998975301030484  1.3980254842538957 -2.2917652972863829
 -0.1732052602777947  2.0234609540548245  3.8102961410720413
  4.0053161364577976  3.1449138384751545 -1.7858733358020296
 -0.3622554161555254  4.6904232568876001  2.4472340871093707
  4.1943663232755224  0.4779515503424127 -0.4228176370394076
  1.5715175496518923  1.6798421831561354 -0.2088110520938669
  1.0852892554025950  4.5696813206525730 -1.7655706757212559
  2.7468263600073954  0.5986934474874022  3.7899919554812742
  2.2605971895780947  3.4885377924538625  2.2332295265838766
