Sm Si Rh 
 1.0000000000000000
     4.2427613892439746   -0.0000000000000001    0.0000000010807418
    -0.0000000000000001    4.2427613892439746    0.0000000010807418
    -2.1213811978175898   -2.1213811978175898    4.9094312959393704
 Sm  Si  Rh 
   1   3   1
Cartesian
  2.1213799999996832  2.1213799999996832  4.9042140312253757
 -0.0000000000016989 -0.0000000000016989  4.0684084987386342
  2.1213821213784656  0.0000021213784674  2.5835126050766295
  0.0000021213784674  2.1213821213784656  2.5835126050766295
  2.1213778786250925  2.1213778786250925  1.5116101904527219
