Ca La Fe Sn  O 
 1.0000000000000000
     5.5420820217816154    0.0093859488001922   -0.0029633255874727
     0.0440058717011669    7.8928663776029175    0.0199922005127603
    -0.0025995507503634    0.0146745684590238    5.6606837369026231
 Ca  La  Fe  Sn  O  
   2   2   2   2  12
Cartesian
  2.8651491590779750  1.9893382413911096  3.1217075430157983
  0.0907265079578847  5.9429149568050583  5.3763529056839410
  5.5062931047958168  1.9649289562179972  0.2521044693069802
  2.7331205840452060  5.9435752967387483  2.6094851229902747
  2.7888044305337663  3.9731478207727653  5.6684340403072309
  5.5333824512433916  0.0198811600729061  2.8285368713535610
  5.5610570288121774  3.9532310473525909  2.8397185206833453
  2.8117208223130263  7.9042572301211695  5.6703130459841820
  4.4276979811560357  0.4068469748918019  4.4062343435119589
  1.6786594799326082  4.3093813829291845  4.0105935877772918
  2.3313036109566960  2.0033380166661146  5.5003813999203190
  5.0865716594523178  6.0240945728983375  3.0145483957961168
  3.9549401499967147  0.4089020743710329  1.7075425942411964
  0.5525498202672323  1.8878307288030713  2.6926949403493863
  3.8786068462093848  3.5717345273377199  1.6960843274479667
  1.1145271204811251  7.4975845383838191  1.2291654405955426
  1.5806155367823060  7.5268374805917357  4.0056468571190686
  3.3208052735262013  5.9134665772911754  0.1449233787462852
  1.1331829588049041  4.3219335478944920  1.1339133720314585
  4.4246542548652270  3.6301111857491817  4.5264444497680056
