 K Sm 
 1.0000000000000000
     1.8169585469532719   -3.1470644293592769    0.0000000000000000
     1.8169585469532719    3.1470644293592769   -0.0000000000000000
     0.0000000000000000   -0.0000000000000000   12.8902021129466959
 K   Sm 
   1   3
Cartesian
  0.0000000000000000  0.0000000000000000  0.0000000000000000
  0.0000000000000000  0.0000000000000000  6.4451000000000001
  1.8169599999999999  1.0490220980399800  3.5994837418347734
  1.8169599999999999 -1.0490220980399800  9.2907162581652258
