Al Bi  O 
 1.0000000000000000
     5.7505684335410470    0.0000000000000000    0.0000000000000000
     0.0000000000000000    7.7421598256313837    0.0000000000000000
     0.0000000000000000   -0.0000000000000000    8.2286293581468577
 Al  Bi  O  
   8   4  18
Cartesian
  2.8752849999999999  1.1455495130714979  6.8959670565310933
  2.8752849999999999  6.5966104869285020  1.3326629434689088
  2.8752849999999999  5.0166295130714982  5.4469779434689078
  2.8752849999999999  2.7255304869285029  2.7816520565310907
  1.4970034628411109  0.0000000000000000  4.1143150000000004
  4.2535665371588864  3.8710800000000001  0.0000000000000000
  4.2535665371588864  0.0000000000000000  4.1143150000000004
  1.4970034628411109  3.8710800000000001  0.0000000000000000
  0.0000000000000000  1.2827315554802401  1.3779122619091415
  0.0000000000000000  6.4594284445197605  6.8507177380908608
  0.0000000000000000  5.1538115554802397  2.7364027380908573
  0.0000000000000000  2.5883484445197613  5.4922272619091403
  1.4415311008717218  4.8309682175102466  6.5232909896355693
  1.4415311008717218  2.9111917824897549  1.7053390103644299
  2.8752849999999999  3.8710800000000001  4.1143150000000004
  2.8752849999999999  0.0000000000000000  0.0000000000000000
  4.3090388991282778  4.8309682175102466  6.5232909896355693
  4.3090388991282778  2.9111917824897549  1.7053390103644299
  1.4415311008717218  0.9598882175102469  5.8196540103644319
  1.4415311008717218  6.7822717824897536  2.4089759896355694
  0.0000000000000000  6.6222966257427851  4.6556958024007145
  2.8752849999999999  6.6718864184245952  4.8184033764108065
  2.8752849999999999  4.9413535815754051  0.7040883764108058
  2.8752849999999999  2.8008064184245964  7.5245416235891946
  0.0000000000000000  1.1198633742572150  3.5729341975992837
  4.3090388991282778  6.7822717824897536  2.4089759896355694
  0.0000000000000000  4.9909433742572151  0.5413808024007150
  0.0000000000000000  2.7512166257427833  7.6872491975992867
  2.8752849999999999  1.0702735815754032  3.4102266235891934
  4.3090388991282778  0.9598882175102469  5.8196540103644319
