Hf Ge Rh 
 1.0000000000000000
     3.9844558452258259    0.0000000000000000    0.0000000000000000
    -0.0000000000000000    6.5517992506613618    0.0000000000000000
     0.0000000000000000    0.0000000000000000    7.6130473896019648
 Hf  Ge  Rh 
   4   4   4
Cartesian
  0.9961150000000000  0.1686092968401602  2.3449939975113407
  2.9883449999999998  3.1072907031598396  6.1515189975113396
  2.9883449999999998  6.3831907031598378  5.2680560024886605
  0.9961150000000000  3.4445092968401623  1.4615310024886590
  0.9961150000000000  1.7115322384159124  4.6845703801529082
  2.9883449999999998  1.5643677615840876  0.8780453801529077
  2.9883449999999998  4.8402677615840872  2.9284796198470926
  0.9961150000000000  4.9874322384159129  6.7350046198470928
  0.9961150000000000  0.9680699923144147  7.0977602771091117
  2.9883449999999998  2.3078300076855855  3.2912352771091125
  2.9883449999999998  5.5837300076855865  0.5152897228908879
  0.9961150000000000  4.2439699923144136  4.3218147228908892
