Rb Ni  S 
 1.0000000000000000
    -5.0057650000000002    0.0000000000000000   -2.9515430000000000
     5.0057650000000002    0.0000000000000000   -2.9515430000000000
     0.0000000000000000   -6.7073090000000004    2.9515430000000000
 Rb  Ni  S  
   2   3   4
Cartesian
  0.0000000000000002 -2.1690903955199885 -2.9515340969200148
  0.0000000000000000 -4.5382196044800107 -0.0000059030799851
  0.0000000000000000  0.0000000000000000  0.0000000000000000
  2.5028800000000002  0.0000000000000000 -1.4757700000000000
 -2.5028800000000002  0.0000000000000000 -1.4757700000000000
 -3.3256967942400117 -5.2621932312599924  0.0000000000000001
 -3.3256967942400109 -1.4451167687400073 -2.9515400000000009
  3.3256967942400117 -5.2621932312599924  0.0000000000000001
  3.3256967942400113 -1.4451167687400073 -2.9515400000000005
