Pr Sc  S 
 1.0000000000000000
     6.5045330923502771    0.0000000000000000    0.0000000000000004
     0.0000000000000012    7.1929842611478048    0.0000000000000004
    -0.0000000000000000    0.0000000000000000    9.5933538526491624
 Pr  Sc  S  
   4   4  12
Cartesian
  3.4883305314849897  2.8918337613277778  7.1950124999999989
  3.0161994685150124  4.3011462386722243  2.3983374999999998
  0.2360655314849873  0.7046562386722232  2.3983374999999998
  6.2684644685150106  6.4883237613277762  7.1950124999999989
  0.0000000000000000  3.5964900000000002  0.0000000000000000
  0.0000000000000000  3.5964900000000002  4.7966749999999996
  3.2522650000000000  0.0000000000000000  4.7966749999999996
  3.2522650000000000  0.0000000000000000  0.0000000000000000
  0.8080786616191379  3.8346878530674262  7.1950124999999989
  5.6964513383808635  3.3582921469325755  2.3983374999999998
  4.4049144085466834  4.9431126324782984  9.0160208457839683
  2.0996155914533170  2.2498673675217020  4.2193458457839705
  1.1526494085466834  5.8463573675217022  4.2193458457839705
  1.1526494085466834  5.8463573675217022  0.5773291542160297
  4.4049144085466834  4.9431126324782984  5.3740041542160304
  2.0996155914533170  2.2498673675217020  0.5773291542160297
  2.4441863383808622  0.2381978530674254  7.1950124999999989
  5.3518805914533170  1.3466226324782988  5.3740041542160304
  5.3518805914533170  1.3466226324782988  9.0160208457839683
  4.0603436616191360  6.9547821469325743  2.3983374999999998
