Tb Mo  O 
 1.0000000000000000
     6.3265842893156918   -0.0000000034771618    3.6526547910415368
     2.1088617565574981    5.9647603309395034    3.6526547910415368
    -0.0000000000000000    0.0000000000000000    7.3053095820830736
 Tb  Mo  O  
   4   4  14
Cartesian
  4.2177199999999999  2.9823800000000000  7.3053050000000006
  1.0544300000000000  2.9823800000000000  5.4789800000000000
  3.1632899999999999  0.0000000000000000  5.4789800000000000
  4.2177199999999999  2.9823800000000000  3.6526500000000000
  0.0000000000000000  0.0000000000000000  0.0000000000000000
  0.0000000000000000  0.0000000000000000  3.6526550000000002
  3.1632899999999999  0.0000000000000000  1.8263250000000000
  1.0544300000000000  2.9823800000000000  1.8263250000000000
  1.9471695964051356  3.9566398833549874  3.3725950769105371
  4.3794104035948642  0.5169301166450131  7.5853624230894630
  4.3794104035948642  0.5169301166450131  3.3725950769105375
  5.2721499999999999  3.7279749999999998  9.1316312499999999
  6.4882704035948642  2.0081201166450131  7.0252475769105374
  4.0560295964051365  5.4478298833549879  7.0252475769105382
  2.8399091928313078  2.0081201166598883  9.1316341333597393
  7.7043908071686920  5.4478298833401118  9.1316283666402622
  6.4882704035948642  2.0081201166450131 11.2380149230894624
  1.9471695964051356  3.9566398833549874  7.5853624230894638
  4.0560295964051365  5.4478298833549879 11.2380149230894641
  3.1632899999999999  2.2367850000000002  5.4789787500000005
  5.5955308071686920  3.9566398833401117  5.4789758666402628
  0.7310491928313083  0.5169301166598885  5.4789816333597399
