Yb Zn Ag 
 1.0000000000000000
     4.3873717804276264   -0.0000000000000000    2.5330502784648585
     1.4624572601425423    4.1364537833691610    2.5330502784648585
    -0.0000000000000000   -0.0000000000000000    5.0661005569297162
 Yb  Zn  Ag 
   2   1   1
Cartesian
  1.4624575000000000  1.0341125000000000  2.5330499999999998
  4.3873724999999997  3.1023375000000000  7.5991499999999998
  0.0000000000000000  0.0000000000000000  0.0000000000000000
  2.9249149999999999  2.0682250000000000  5.0660999999999996
