Be Tc Sn 
 1.0000000000000000
     3.1821131253331623   -0.0000000000000000    0.0000000000000000
    -0.0000000000000000    3.1821131253331623    0.0000000000000000
     0.0000000000000000   -0.0000000000000000    5.4087571355609381
 Be  Tc  Sn 
   2   1   1
Cartesian
  0.0000000000000000  0.0000000000000000  3.7235925568245150
  0.0000000000000000  0.0000000000000000  1.6851674431754842
  1.5910550000000001  1.5910550000000001  2.7043800000000000
  1.5910550000000001  1.5910550000000001  0.0000000000000000
