Sm Sn Au 
 1.0000000000000000
     2.3698134215605569   -4.1045551787417818    0.0000000000000000
     2.3698134215605569    4.1045551787417818    0.0000000000000000
     0.0000000000000000    0.0000000000000000    7.5681115274648860
 Sm  Sn  Au 
   2   2   2
Cartesian
  2.3698100000000002 -4.1045007550339454  7.3711556342701057
  2.3698100000000002  4.1045007550339454  3.5871006342701039
  2.3698099999999993 -1.3681840745285490  1.5075043587197174
  2.3698099999999993  1.3681840745285490  5.2915593587197192
  2.3698100000000006 -1.3681876906264059  6.0305167070101140
  2.3698100000000006  1.3681876906264059  2.2464617070101158
