Rb Er Se Cl  O 
 1.0000000000000000
     6.5118180162907535    0.0000000000000000   -0.8156986128213560
     0.0000000000000000    6.9264306251333716    0.0000000000000000
    -0.0121081173859250    0.0000000000000000   16.6152925449504849
 Rb  Er  Se  Cl  O  
   4   4   4   8  12
Cartesian
  1.1456058984044775  1.3780660698654261 15.4749779601776751
  4.4075708984044750  2.0851489301345731  6.7594829601776816
  5.3541041015955253  5.5483639301345713  0.3246120398223259
  2.0921391015955231  4.8412810698654285  9.0401070398223276
  5.6996036007679063  4.5247407260500445 11.5869173239362055
  4.0499613992320933  1.0615257260500481 12.1124676760637975
  0.8001063992320894  2.4016892739499518  4.2126726760638125
  2.4497486007679123  5.8649042739499553  3.6871223239361948
  6.0106444911485521  5.8267355618432628  4.1899755753254073
  2.7486794911485521  4.5629094381567370 12.9054705753254098
  3.7510305088514473  2.3635205618432642  2.8941194246745900
  0.4890655088514496  1.0996944381567357 11.6096144246745929
  4.3801991528436890  0.9397836635433503 14.7154936783558234
  3.2062291979621960  1.1235406573356181  9.6334319531443420
  6.4681941979621955  2.3396743426643840  0.9179369531443519
  0.0315158020378069  4.5867556573356199 14.8816530468556607
  2.1195108471563140  5.9866463364566487  1.0840963216441728
  5.3693658471563106  4.4029986635433511  8.9838913216441796
  3.2934808020378048  5.8028893426643799  6.1661580468556476
  1.1303441528436839  2.5234313364566510  6.8156986783558260
  2.7559420419981691  1.1758838872797464  3.6960990028174852
  4.6651885950624692  5.8987761123902720  3.1586175822185090
  5.9801377006830903  6.7598392733700265 11.4156439128418619
  2.7302827006830928  3.6298057266299733  3.5158489128418555
  6.0057970419981643  2.2873311127202509 11.5958940028174915
  3.7437679580018361  5.7505461127202535 12.1034909971825115
  0.5195722993169094  0.1665907266299769  4.3839460871581446
  1.4032235950624716  4.4908688876097278 11.8741125822185101
  0.4939129580018343  4.6390988872797463  4.2036959971825185
  3.7694272993169098  3.2966242733700222 12.2837410871581412
  1.8345214049375291  1.0276538876097296 12.6409724177814926
  5.0964864049375311  2.4355611123902672  3.9254774177814959
