Be Cu Te 
 1.0000000000000000
     3.6310425804586832    0.0000000000000000   -0.0000000000000000
     0.0000000000000000    3.6310425804586832    0.0000000000000000
    -0.0000000000000000    0.0000000000000000    6.8520448162119143
 Be  Cu  Te 
   1   1   2
Cartesian
  0.0000000000000000  0.0000000000000000  3.5175320040835776
  1.8155200000000000  1.8155200000000000  5.1100023519296291
  0.0000000000000000  0.0000000000000000  5.9787447688495696
  1.8155200000000000  1.8155200000000000  2.5238208751372206
