Li Cu  F 
 1.0000000000000000
     5.0774034371737500   -0.0167364572213584   -0.0136618997045607
     2.5104931234370351    4.4133586426165907    0.0136619084523317
    -0.8951284527927078    1.5448544734853407    4.7725995117814026
 Li  Cu  F  
   5   1   6
Cartesian
  0.8111219391927532  1.5017408138300772  2.3862999999994261
  2.5272601565885662  1.4643599933126790  0.0000000000000848
  3.3463799999999999  2.9707349999999999  2.3862999999999999
  5.0606298434114327  2.9322600066873212 -0.0000000000000848
  5.8816380608072469  4.4397291861699237  2.3863000000005741
  0.0000000000000000  0.0000000000000000  0.0000000000000000
  1.6041570677920418  2.8539933304459786  1.2201789908643832
  2.3786806918706147  1.5172775337810276  3.5524210091381017
  2.5497934965299165  4.3455211461191414  3.4762473902883158
  4.1429665034700838  1.5959488538808586  1.2963526097116846
  4.3140793081293856  4.4241924662189716  1.2201789908618974
  5.0886029322079569  3.0874766695540203  3.5524210091356174
