Ti  S Cl  O 
 1.0000000000000000
     6.1358581217993873    0.0308620490032546   -0.1606157210629612
    -2.9652762402681256    6.6021834575062313   -2.3089936375762470
    -0.0259987350887519    0.0494653320055587   10.7710799319151160
 Ti  S   Cl  O  
   2   2  12   2
Cartesian
  3.4202150105534161  5.0974960473547073  7.2947977101741150
 -0.2756350105534108  1.5850139526452922  1.0066722898258762
  2.1805894584598495  0.1157896357032397  3.1868802460579837
  0.9639905415401450  6.5667203642967618  5.1145897539420222
 -0.9064275300410690  4.4938565941534963  8.5609370524163495
  5.2962400709984170  1.3048598296481755  6.6115187902175041
  4.0510075300410673  2.1886534058465017 -0.2594670524163546
  0.8991430303228075  0.8340549453230549  9.7614490998549748
 -1.9111547864603695  4.8173616483461368  5.3780468206778114
  0.9236371742590651  3.4707520862627832  0.8383733027578764
  1.0591771172270834  5.1076853439220766  3.6059958307360427
  2.2454369696771863  5.8484550546769496 -1.4599790998549791
  2.0854028827729172  1.5748246560779213  4.6954741692639592
 -2.1516600709984188  5.3776501703518260  1.6899512097824967
  2.2209428257409374  3.2117579137372165  7.4630966972421264
  5.0557347864603672  1.8651483516538727  2.9234231793221914
  1.5749247308449337  5.9815628606839937  6.3114799509824442
  1.5696552691550640  0.7009471393160142  1.9899900490175491
