Ga Ni 
 1.0000000000000000
    -3.1871590996173720    3.1871590996173720    4.8707535532767015
     3.1871590996173720   -3.1871590996173720    4.8707535532767015
     3.1871590996173720    3.1871590996173720   -4.8707535532767015
 Ga  Ni 
  10   2
Cartesian
  0.0000000000000000  0.0000000000000000  0.0000000000000000
  0.0000000000000000  0.0000000000000000  4.8707500000000001
 -0.9588759919775176  2.2282840080224817  3.4795861947828497
  4.1460359919775174  0.9588759919775180 -1.3911638052171498
  2.2282840080224817  0.9588759919775182  3.4795861947828501
  0.9588759919775180  2.2282840080224817 -1.3911638052171498
  2.2282840080224817  0.9588759919775180  6.2619138052171497
  0.9588759919775182  2.2282840080224817  1.3911638052171496
 -0.9588759919775183  2.2282840080224822  6.2619138052171497
  4.1460359919775183  0.9588759919775176  1.3911638052171507
  0.0000000000000001 -0.0000000000000001  7.3061249999999998
  0.0000000000000000  0.0000000000000000  2.4353750000000001
