Er Fe 
 1.0000000000000000
     2.4663514769892187   -4.2718460674678660    0.0000000000000000
     2.4665018168315735    4.2719328662163241   -0.0000000000000000
     0.0000000000000000   -0.0000000000000000    8.3172575544324747
 Er  Fe 
   4   8
Cartesian
  2.4663918795240369 -1.4239280216849675  0.5433590553125948
  2.4664581204759619  1.4240080216849678  4.7019890553125947
  2.4664581204759619  1.4240080216849678  7.7739009446874041
  2.4663918795240369 -1.4239280216849675  3.6152709446874054
  0.0000000000000000  0.0000000000000000  0.0000000000000000
  0.0000000000000000  0.0000000000000000  4.1586299999999996
  3.6833816658801304  0.7214244301983975  2.0793149999999998
  2.4664665195914384  2.8291864946553273  2.0793149999999998
  1.2490681292972690  0.7211486872548575  2.0793149999999998
  1.2494683341198694 -0.7213444301983967  6.2379449999999999
  2.4663834804085609 -2.8291064946553250  6.2379449999999999
  3.6837818707027310 -0.7210686872548565  6.2379449999999999
