Ti  S 
 1.0000000000000000
     3.6409538648312316   -0.0000000000000000    0.0000000000000002
     0.0000000000000011    6.6014993413210252    0.0000000000000004
     0.0000000000000000   -0.0000000000000000    8.0198615134170392
 Ti  S  
   4   8
Cartesian
  0.9102375000000000  4.9389709685647318  4.8848239257831807
  0.9102375000000000  1.6382209685647338  7.1449660742168186
  2.7307125000000001  1.6625290314352659  3.1350360742168188
  2.7307125000000001  4.9632790314352677  0.8748939257831819
  0.9102375000000000  5.7074773874367493  7.3236935495717681
  0.9102375000000000  2.4067273874367499  4.7060964504282312
  2.7307125000000001  0.8940226125632500  0.6961664504282301
  2.7307125000000001  4.1947726125632503  3.3137635495717688
  2.7307125000000001  3.4220136814792124  6.8167745826330686
  2.7307125000000001  0.1212636814792130  5.2130154173669307
  0.9102375000000000  3.1794863185207860  1.2030854173669292
  0.9102375000000000  6.4802363185207872  2.8068445826330715
