Li Ti  V  O 
 1.0000000000000000
     5.1021886317557135    0.0516007408832278    2.9621647341613460
     1.7298261230984524    4.8002805182950636    2.9621647341613446
     0.0726598582178142    0.0516007381469845    5.8992769112262611
 Li  Ti  V   O  
   2   1   3   8
Cartesian
  6.0357026613024960  4.2863604519896015 10.3355599370538567
  0.8689773386975038  0.6171195480103981  1.4880400629461414
  3.4523400000000000  2.4517399999999996  5.9117999999999995
  0.9012450000000000  2.4259399999999998  4.4307200000000000
  2.5874250000000001  0.0516000000000000  4.4307200000000000
  3.4160100000000000  2.4259399999999998  2.9621599999999999
  5.1037687879617124  3.6245312130894547  8.7397128674044513
  5.0710399740978218  3.6012886263393318  6.0372635922400377
  4.3116199467407261  1.4251433331402701  7.3832376026093147
  2.7661914611433400  3.6012886263434267  7.3832376026093138
  4.1384885388566595  1.3021913736565716  4.4403623973906843
  2.5930600532592716  3.4783366668597293  4.4403623973906843
  1.8336400259021761  1.3021913736606667  5.7863364077599604
  1.8009112120382880  1.2789487869105451  3.0838871325955499
