Zn Cr  W  O 
 1.0000000000000000
     5.2032788805157493    0.0179736786376396    0.0095291632909623
     2.5859462752301230    4.5152982216204132    0.0022461467819680
     2.5878569329154266    1.5135981564149212    4.5966351313043372
 Zn  Cr  W   O  
   2   1   1   6
Cartesian
  7.8643180948151743  4.5324564522562731  3.4179055863981014
  2.6750988918645611  1.5090747541958824  1.5703092574637318
  5.2700880476563858  3.0206703514902657  2.2710349022799377
  2.6673549649864752  4.5125644011051342  0.0220048955006721
  4.5979038568106549  4.5922320943645740  3.3722935465615231
  5.9512696771018287  1.4945671285813888  1.1042003439592252
  6.2536441682289654  4.3705943100872018  1.1029191674792265
  6.9634158961012886  2.8161800054846409  3.3778955425431967
  3.6117984752659558  3.1946459969889176  1.0987218152248943
  4.2426792930887238  1.6556110474256971  3.3733170584094569
