Li  V Si  O 
 1.0000000000000000
     5.0123082706908120   -0.0000036659034303    0.1006056115979485
     0.0000074580676117   10.2905857007946633   -0.0000021710411395
    -0.0094910018641555    0.0000008915865880    6.6751547270344522
 Li  V   Si  O  
   4   4   4  16
Cartesian
  0.9021157171428599  1.5792703708836660  3.4035588545006199
  1.5898115248707350  6.7245653098511147  6.6594720494456707
  3.4130178355253782  3.5660227350273681  0.1162840126784619
  4.1007136833804809  8.7113179097288640  3.3722041703219241
  3.3758887760401945  3.4480629462053094  3.4981593268665430
  4.1283460157829248  8.5933605528494912  6.6654640906668279
  0.8744768278482764  1.6972267554557001  0.1102787352150411
  1.6269351792580684  6.8425191601699868  3.2775865965268047
  4.1241858803749087  6.0702415479106406  5.0421422537652818
  3.3800527088688082  0.9249518958855814  5.1214978157614954
  1.6227758277929034  9.3656477121210742  1.6542693605794641
  0.8786491885458284  4.2203473672379284  1.7336114846346484
  1.2508856044026104  5.8168757025536317  1.7140147045886023
  1.2505354901997616  0.6715760887731962  1.6738712314197410
  3.9822002877464735  1.6547816619527680  3.7728127118126706
  3.5220339670409873  6.8000821623536556  6.3908340230300418
  1.4807905716181029  3.4905033636797933  0.3849314853415880
  1.0206282394129613  8.6357934988526175  3.0029564632681738
  4.0235367698448545  1.6569158083901214  6.4558801806247930
  1.7596381772885110  1.2055749691751958  5.1557855104225050
  1.5221183491027523  3.4883753033693221  3.0680020798257281
  0.9793038713504543  8.6336675777887617  0.3198769206417230
  4.2705406842492692  3.9397169445542910  1.8685087410532946
  3.2431973078098819  9.0850065498939792  1.6199825963805661
  3.7519472732058285  4.4737232940605702  5.0617496912769377
  0.7322951180023922  6.3508748184652699  4.9072466191677062
  3.4807034171235736  6.8022137683684250  3.7077575242011500
  3.7523007279401805  9.6190133526717432  5.1018941914419171
