Er Al Fe 
 1.0000000000000000
     4.4617828592849360   -0.0000000000055601    2.5905898410245531
    -2.9829625115427150    4.2095839061074969    0.0000000000000003
     0.0057806260813827    0.0040962221631912    5.1276118219911631
 Er  Al  Fe 
   2   1   3
Cartesian
  0.0128107397282622  3.1707514920578821  5.1155025262188358
  1.4640142602717383  4.1990885079421174  2.6160899737811651
  2.2327824999999999  1.5821800000000001  6.4296012500000002
 -0.0009974999999999  1.5801300000000000  2.5705012500000000
 -1.4924774999999997  3.6849200000000000  2.5705012500000000
  2.2298925000000001  1.5801300000000000  3.8657962499999998
