Ba Pr Ta  O 
 1.0000000000000000
     5.3278626985713453   -0.0000000000000000    3.0760429632255324
     1.7759542328571150    5.0231571245208748    3.0760429632255324
    -0.0000000000000000   -0.0000000000000000    6.1520859264510630
 Ba  Pr  Ta  O  
   2   1   1   6
Cartesian
  1.7759525000000000  1.2557900000000000  3.0760424999999998
  5.3278575000000004  3.7673699999999997  9.2281275000000011
  3.5519050000000001  2.5115799999999999  6.1520849999999996
  0.0000000000000000  0.0000000000000000  0.0000000000000000
  4.5090768104666470  1.1579344539519183  4.4942144110904403
  2.5947331895333532  3.8652255460480816  7.8099555889095598
  2.5947331895333532  3.8652255460480816  4.4942144110904403
  4.5090768104666470  1.1579344539519183  7.8099555889095598
  1.6375640738754442  1.1579344539519183  6.1520876948087384
  5.4662459261245555  3.8652255460480816  6.1520823051912616
