Li Mn  F 
 1.0000000000000000
     6.0084500496835549   -0.0200721712375381    7.1761927181634162
     2.5936993505650525    5.4198338369773378    7.1761927007471122
    -0.0319761662137806   -0.0200721249158973    9.3593905028025066
 Li  Mn  F  
   2   7  16
Cartesian
  5.7818554313338693  3.6294017324501731 15.9971186290207559
  2.7883145686661304  1.7502882675498266  7.7146513709792348
  0.0000000000000000  0.0000000000000000  0.0000000000000000
  1.9169044290331654  2.5971666998151690 11.1467182161679954
  3.7740989986175268  1.4179752811168560 13.9152593155124595
  3.8827744536655620  4.7823001032036814 13.1126870777197304
  4.6873955463344359  0.5973898967963175 10.5990829222802656
  4.7960710013824741  3.9617147188831443  9.7965106844875471
  6.6532655709668314  2.7825233001848315 12.5650517838320042
  6.0206492275076169  2.1517125874309087 10.4624104154924478
  5.7370738513278337  4.4601013555514744 11.8177357387781523
  4.3669095902049389  4.3810792453909393  7.8228459096913525
  4.6600060081700203 -0.4241157480795828  8.8071079537139685
  5.3834381898615851  0.8929107370392863 12.7548701651722070
  3.4539807162046032  2.1681419994187681  9.5564027699982717
  5.1161892837953982  3.2115480005812325 14.1553672300017297
  2.8330961486721660  0.9195886444485237 11.8940342612218455
  1.3164639918299770  0.3839757480795822  7.7284720462860257
  4.2352404097950602  1.0186807546090595  6.5295340903086467
  2.0536243046436216  3.3713807436934533  6.7842608262234743
  2.5495207724923801  3.2279774125690928 13.2493595845075500
  0.5080956953563770  2.0283792563065446  9.7513191737765244
  6.6779915745098091  4.1919267054766332 18.4765296693637886
  3.1867318101384172  4.4867792629607166 10.9568998348277997
  1.8921784254901901  1.1877632945233667  5.2352403306362048
