Na Eu Ge Se 
 1.0000000000000000
     7.2548953625310846    0.0393414547879337    1.1534107663941349
    -3.8546902832407652    6.1462538689567685    1.1534107680129377
     0.0907848601149853    0.1651551192158394    7.6307952211169008
 Na  Eu  Ge  Se 
   3   2   2   6
Cartesian
  3.5450964805780156  2.0786084348201950  1.1534100000000898
 -0.1448864805780179  4.1069815651798072  1.1534099999999106
  0.0000000000000000  0.0000000000000000  0.0000000000000000
  5.4492334569506111  1.1394405127564791  4.9688100000000377
 -1.9582434569506126  5.2113094872435219  4.9688099999999622
  1.9303077016256454  3.5115796720287933  3.7372520255805868
  1.5606822983743553  2.8391703279712068  6.2003679744194153
  0.7681404985806823  1.3973887101951961  2.4393244142416979
  2.7228495014193190  4.9533612898048052  7.4982955857583047
  0.6246449328271182  5.8480416731580593  3.7531742204952843
  2.8663450671728801  0.5027083268419408  6.1844457795047152
 -1.1116571549666481  2.6894048251291838  6.1844457795047818
  4.6026471549666512  3.6613451748708137  3.7531742204952185
