Li6 Mn2 Co2 O10
1.0
   4.8803882360448583    0.0333305189747192   -0.6610652706957686
  -1.8730848455999103    5.2423852074952428   -1.3640403036300592
   0.0340256944608130    0.0025608869619456    6.3850337005109417
Li Mn Co O
6 2 2 10
direct
   0.8130407415170207    0.5979754429668378    0.1069818121883701 Li
   0.6058993297334819    0.2029778068905913    0.6968846175022310 Li
   0.0000000000000000    0.0000000000000000    0.5000000000000000 Li
   0.1869592584829793    0.4020245570331624    0.8930181878116301 Li
   0.3941006702665186    0.7970221931094090    0.3031153824977694 Li
   0.0000000000000000    0.5000000000000000    0.5000000000000000 Li
   0.5991857760040615    0.6992331859694665    0.6991741303450965 Mn
   0.4008142239959381    0.3007668140305337    0.3008258696549035 Mn
   0.8002203836271767    0.1006932669905473    0.1010867868827798 Co
   0.1997796163728235    0.8993067330094526    0.8989132131172204 Co
   0.1038102393808386    0.4235248973624322    0.1969820718939548 O
   0.8961897606191616    0.5764751026375682    0.8030179281060453 O
   0.6847351637226768    0.1524464780602047    0.3782615079466597 O
   0.1003117017395358    0.9684791656399190    0.1898906656850324 O
   0.3245876463840187    0.3628588158849084    0.5926760201603007 O
   0.4996056326607622    0.7677908235503842    0.9861995523350368 O
   0.6754123536159814    0.6371411841150918    0.4073239798396990 O
   0.5003943673392381    0.2322091764496157    0.0138004476649638 O
   0.8996882982604644    0.0315208343600810    0.8101093343149677 O
   0.3152648362773238    0.8475535219397954    0.6217384920533406 O
