Ce1 Zn2 Au4
1.0
  -0.0000000000000000    0.0000000117321035   -5.3626838884656047
  -3.5113853385129579    3.5113853443790073   -2.6813409573339624
   3.5113853385129579    3.5113853443790073   -2.6813409573339624
Ce Zn Au
1 2 4
direct
   0.0000000000000000    0.0000000000000000    0.0000000000000000 Ce
   0.2499999999999999    0.5000000000000000    0.5000000000000000 Zn
   0.7500000000000000    0.5000000000000000    0.5000000000000000 Zn
   0.6989384827308258   -0.0000000000000000    0.6021230345366894 Au
   0.3010615172691742    0.0000000000000000    0.3978769654633104 Au
   0.6989384827308258    0.6021230345366894   -0.0000000000000000 Au
   0.3010615172691742    0.3978769654633104    0.0000000000000000 Au
