H16 S8
1.0
  -4.0818651324623509    4.0818651324623509    5.7035584125631686
   4.0818651324623509   -4.0818651324623509    5.7035584125631686
   4.0818651324623509    4.0818651324623509   -5.7035584125631686
H S
16 8
direct
   0.0642326560720494    0.7818782266587408    0.7694366977810839 H
   0.5447959582909647    0.7624425288776611    0.7305633022189160 H
   0.5318782266587410    0.2624425288776611    0.2176455705866989 H
   0.7181217733412592    0.4357673439279506    0.2305633022189157 H
   0.7052040417090353    0.9357673439279501    0.7176455705866995 H
   0.0447959582909649    0.3142326560720496    0.7823544294133005 H
   0.2052040417090350    0.4875574711223392    0.7694366977810840 H
   0.2181217733412590   -0.0124425288776613    0.2823534294133037 H
   0.0318782266587411    0.8142326560720498    0.2694366977810846 H
   0.6857673439279501    0.4681217733412590    0.7305633022189160 H
   0.5124425288776613    0.2818782266587408    0.7176455705866995 H
   0.0124425288776612    0.2947959582909648    0.2305633022189157 H
   0.2375574711223387    0.9681217733412589    0.7823544294133005 H
   0.7375574711223389    0.9552040417090353    0.2694366977810847 H
   0.5642326560720499    0.7947959582909647    0.2823534294133037 H
   0.1857673439279509    0.4552040417090353    0.2176455705866989 H
   0.7115189970623900    0.3750000000000001    0.8365189970623900 S
   0.1250000000000000    0.7884810029376099    0.1634810029376100 S
   0.6250000000000001    0.4615189970623896    0.3365189970623896 S
   0.1250000000000000    0.2884810029376103    0.6634810029376099 S
   0.6250000000000001    0.9615189970623900    0.8365189970623900 S
   0.2115189970623899    0.3750000000000000    0.3365189970623897 S
   0.5384810029376099    0.8750000000000000    0.1634810029376101 S
   0.0384810029376101    0.8750000000000000    0.6634810029376100 S
