Li2 Cu2 P2 O8
1.0
   4.8971717720533903   -0.0716056245901532   -0.0000000000000000
   1.8032018295705550    4.5536658286808560   -0.0000000000000000
   0.0000000000000000    0.0000000000000000    6.1903475068890286
Li Cu P O
2 2 2 8
direct
   0.3271056902272326    0.3271056902274224    0.7500000000000000 Li
   0.6728943097727672    0.6728943097725776    0.2500000000000000 Li
   0.0000000000000000    0.0000000000000000    0.0000000000000000 Cu
   0.0000000000000000    0.0000000000000000    0.5000000000000000 Cu
   0.3492573795742875    0.3492573795746081    0.2500000000000000 P
   0.6507426204257123    0.6507426204253915    0.7500000000000000 P
   0.2422365779216158    0.2422365779220125    0.0440137522967764 O
   0.2422365779216158    0.2422365779220125    0.4559862477032236 O
   0.2451812867528860    0.6916576776203969    0.2500000000000000 O
   0.3083423223796567    0.7548187132467831    0.7500000000000000 O
   0.6916576776203431    0.2451812867532171    0.2500000000000000 O
   0.7548187132471139    0.3083423223796031    0.7500000000000000 O
   0.7577634220783842    0.7577634220779874    0.9559862477032236 O
   0.7577634220783842    0.7577634220779874    0.5440137522967764 O
