Te2 Mo2 W2 Se4 S2
1.0
   3.3481325384247111    0.0000000000000000    0.0000000000000000
  -1.6740662692123556    2.8993267161904037    0.0000274061631413
   0.0000000000000000    0.0003428992800125   35.9420127484053609
Te Mo W Se S
2 2 2 4 2
direct
   0.6665488491770966    0.3330966983541893    0.4181190000872444 Te
   0.6666660286709402    0.3333300573418851    0.5244970156593965 Te
   0.3335235602333445    0.6670451204666941    0.0948567682926787 Mo
   0.6667229199037038    0.3334458398074078    0.2777743929354138 Mo
   0.3332466293742681    0.6664942587485337    0.4712850771887297 W
   0.6664961944209065    0.3329943888418154    0.6589770661237810 W
   0.3333423508816584    0.6666857017633143    0.3241570063685341 Se
   0.6669562237443306    0.3339124474886612    0.0485377073560765 Se
   0.6667934264095638    0.3335868528191206    0.1412324247569237 Se
   0.3333957979888880    0.6667925959777733    0.2314031496988666 Se
   0.3331173213494752    0.6662366426989526    0.7013532108954937 S
   0.3331886978458291    0.6663783956916558    0.6165541806368754 S
