Pr1 Mn4 Cu3 O12
1.0
   5.9738900837110052   -0.0000000118598178   -2.1120891783558240
  -2.9869445620377091    5.1735399894773977   -2.1120891783558240
  -0.0000000000000000   -0.0000000000000000    6.3362675350674715
Pr Mn Cu O
1 4 3 12
direct
   0.0000000000000000    0.0000000000000000    0.0000000000000000 Pr
   0.5000000000000000    0.5000000000000000    0.4999999999999999 Mn
   0.5000000000000000    0.0000000000000000   -0.0000000000000000 Mn
   0.0000000000000000    0.0000000000000000    0.4999999999999999 Mn
  -0.0000000000000000    0.5000000000000000    0.0000000000000000 Mn
  -0.0000000000000000    0.5000000000000000    0.5000000000000000 Cu
   0.5000000000000000    0.5000000000000000   -0.0000000000000000 Cu
   0.5000000000000000    0.0000000000000000    0.5000000000000000 Cu
   0.8196987912028284    0.1210104992343849    0.3013117080315085 O
   0.1210104992341780    0.3013117080313145    0.8196987912027266 O
   0.8789895007658222    0.6986882919686859    0.1803012087972733 O
   0.8196987912028263    0.5183870831715658    0.6986882919686960 O
   0.3013117080313499    0.1803012087969295    0.4816129168285305 O
   0.3013117080314593    0.8196987912030674    0.1210104992342771 O
   0.4816129168286332    0.3013117080315014    0.1803012087972767 O
   0.5183870831713669    0.6986882919684982    0.8196987912027232 O
   0.6986882919685403    0.1803012087969326    0.8789895007657226 O
   0.1803012087971738    0.4816129168284340    0.3013117080313041 O
   0.6986882919686502    0.8196987912030707    0.5183870831714694 O
   0.1803012087971719    0.8789895007656152    0.6986882919684914 O
