Sc1 Zn2 Pd1
1.0
   0.0000000000000000    3.1649628291020520    3.1649628291020520
   3.1649628291020520    0.0000000000000000    3.1649628291020520
   3.1649628291020520    3.1649628291020520    0.0000000000000000
Sc Zn Pd
1 2 1
direct
   0.7499990000000026    0.7499990000000026    0.7499990000000024 Sc
   0.0000000000000000    0.0000000000000000    0.0000000000000000 Zn
   0.5000009999999976    0.5000009999999976    0.5000009999999974 Zn
   0.2500000000000000    0.2500000000000000    0.2499999999999999 Pd
