Li8 V1
1.0
   1.3984839642096099   -2.4222448593238948   -0.0000000000000000
   1.3984839642096099    2.4222448593238948    0.0000000000000000
  -0.0000000000000000   -0.0000000000000000   22.6939361758197506
Li V
8 1
direct
   0.0000000000000000    0.0000000000000000    0.2162713714123441 Li
   0.0000000000000000    0.0000000000000000    0.0057869101996821 Li
   0.3333333333333357    0.6666666666666643    0.4436200575899674 Li
   0.6666666666666643    0.3333333333333357    0.5553364152194534 Li
   0.6666666666666643    0.3333333333333357    0.3315630817731630 Li
   0.0000000000000000    0.0000000000000000    0.7786837614494525 Li
   0.3333333333333357    0.6666666666666643    0.8907923864757046 Li
   0.3333333333333357    0.6666666666666643    0.6669782432947018 Li
   0.6666666666666643    0.3333333333333357    0.1109677725855313 V
