Rb2 Sc1 Ag1 I6
1.0
   7.1825806024692316   -0.0000000000000000    4.1468648443117964
   2.3941935341564116    6.7718019338999369    4.1468648443117964
  -0.0000000000000000   -0.0000000000000000    8.2937296886235909
Rb Sc Ag I
2 1 1 6
direct
   0.7499999999999999    0.7500000000000000    0.7500000000000000 Rb
   0.2500000000000000    0.2500000000000000    0.2500000000000000 Rb
   0.0000000000000000    0.0000000000000000    0.0000000000000000 Sc
   0.5000000000000000    0.4999999999999999    0.5000000000000000 Ag
   0.7545148707673891    0.2454851292326110    0.2454851292326110 I
   0.2454851292326110    0.2454851292326110    0.7545148707673891 I
   0.2454851292326110    0.7545148707673892    0.7545148707673891 I
   0.2454851292326110    0.7545148707673892    0.2454851292326110 I
   0.7545148707673891    0.2454851292326110    0.7545148707673891 I
   0.7545148707673891    0.7545148707673892    0.2454851292326110 I
