Fe4 O8
1.0
   4.8613922306826272   -0.0000000107621802    2.8067265343240964
   1.6204640667475283    4.5833643718278587    2.8067265343240972
  -0.0000000304400333   -0.0000000215243531    5.6134511748205300
Fe O
4 8
direct
   0.4999990000000024    0.5000009999999975    0.4999999999999999 Fe
   0.5000009999999975    0.0000000000000000    0.4999999999999999 Fe
   0.0000009999999975    0.5000009999999975    0.5000000000000000 Fe
   0.4999990000000024    0.5000009999999975   -0.0000000000000000 Fe
   0.7371809310722521    0.7371809310622555    0.2884562068342932 O
   0.7371809311343404    0.7371809311243437    0.7371809310312092 O
   0.2628200689277526    0.2628190689377448    0.7115427931657092 O
   0.2628200689067050    0.7115437932798890    0.2628190689377448 O
   0.2628200688656642    0.2628190688756561    0.2628190689687909 O
   0.7115437932998820    0.2628190689067004    0.2628190689277479 O
   0.7371819310932970    0.2884552067201134    0.7371819310622530 O
   0.2884572067001152    0.7371809310932995    0.7371819310722495 O
