Li6 Mn6 O12
1.0
   5.1159733584046565   -0.0073851582795738    0.0458351621021905
  -0.0797611441026760    5.7834435258142243    0.0028171064204797
  -0.3643800898810040   -0.1280680391268834    7.1624962886094936
Li Mn O
6 6 12
direct
   0.4093910467551151    0.1268610470102301    0.1760124245302894 Li
   0.5906089532448855    0.8731389529897698    0.8239875754697107 Li
   0.9127925079806528    0.3708276887980396    0.1674867540610566 Li
   0.2452888451600013    0.8802649108109907    0.5079268536230914 Li
   0.0872074920193475    0.6291723112019604    0.8325132459389434 Li
   0.7547111548399985    0.1197350891890092    0.4920731463769076 Li
   0.0834738613847877    0.1146546642391767    0.8323926968841948 Mn
   0.2427720493137021    0.3666230566447287    0.4946828660730698 Mn
   0.7572279506862977    0.6333769433552703    0.5053171339269302 Mn
   0.5912969392343820    0.3769473133408750    0.8372689693343699 Mn
   0.4087030607656176    0.6230526866591244    0.1627310306656297 Mn
   0.9165261386152121    0.8853453357608232    0.1676073031158053 Mn
   0.0840941869737254    0.1302399269069426    0.3363556063546532 O
   0.2663220937473457    0.3775208747274368    0.9967561380330863 O
   0.2335605339294325    0.8674632438073356    0.0156613115859218 O
   0.7336779062526547    0.6224791252725631    0.0032438619669135 O
   0.7664394660705680    0.1325367561926644    0.9843386884140780 O
   0.3975711566885671    0.1391896125245339    0.6754662097807601 O
   0.4334013065945473    0.6062915552841567    0.6616544453261517 O
   0.9154304107526504    0.3802333175852620    0.6614168619291291 O
   0.9159058130262748    0.8697600730930576    0.6636443936453467 O
   0.5665986934054525    0.3937084447158431    0.3383455546738482 O
   0.6024288433114328    0.8608103874754657    0.3245337902192392 O
   0.0845695892473497    0.6197666824147385    0.3385831380708709 O
