Rb2 In1 I6 O18
1.0
   7.6124816418890004   -0.0412503798532836   -1.0161813291566626
  -1.1701963183845761    7.5126833881971748   -1.0822423269943571
  -0.0413508714674744    0.0211837473650146    7.6795567740191419
Rb In I O
2 1 6 18
direct
   0.1636538326464211    0.1636435909369248    0.6636327912841388 Rb
   0.8363461673535790    0.8363564090630747    0.3363672087158612 Rb
   0.5000000000000001    0.5000000000000000    0.0000000000000000 In
   0.3364642748049647    0.1176338057158142    0.1988733695516552 I
   0.6988659294932619    0.3364798370145466    0.6176494326796335 I
   0.6635357251950356    0.8823661942841857    0.8011266304483446 I
   0.8823510615610026    0.3011248517032030    0.1635409924486742 I
   0.1176489384389973    0.6988751482968039    0.8364590075513259 I
   0.3011340705067381    0.6635201629854530    0.3823505673203663 I
   0.5398464375438231    0.3130535154194574    0.7783627709642886 O
   0.6034323654561574    0.7072268393406358    0.6005759140337532 O
   0.3965676345438430    0.2927731606593639    0.3994240859662461 O
   0.9046875266295923    0.9346448339953227    0.8086070405697581 O
   0.0953124733704085    0.0653551660046773    0.1913929594302421 O
   0.8994353599632529    0.3965483478688414    0.7928070775895245 O
   0.1005646400367471    0.6034516521311588    0.2071929224104753 O
   0.4601535624561772    0.6869464845805426    0.2216372290357116 O
   0.0653596858004307    0.6914479164910454    0.5953002968872263 O
   0.3086438556049452    0.9046811147888201    0.4346055497966111 O
   0.9346403141995692    0.3085520835089551    0.4046997031127733 O
   0.3130083469896510    0.2783596081455100    0.0398227994539523 O
   0.7072113929329270    0.1005584540975643    0.1034254852853848 O
   0.2927886070670728    0.8994415459024363    0.8965745147146157 O
   0.7216288757448523    0.4601307660024273    0.1870020802300656 O
   0.2783711242551489    0.5398692339975727    0.8129979197699343 O
   0.6913561443950558    0.0953188852111792    0.5653944502033890 O
   0.6869916530103485    0.7216403918544904    0.9601772005460480 O
