P1 O1 F2
1.0
   3.0150091118905866    0.0000000000000000    0.0000000000000000
   0.0000000000000000    3.0150091118905866    0.0000000000000000
   0.0000000000000000    0.0000000000000000    5.2033008298021226
P O F
1 1 2
direct
   0.4999997981021309    0.4999997981021309    0.2582522800912686 P
   0.0000000000000000    0.0000000000000000    0.2889108313507844 O
   0.0000000000000000    0.0000000000000000    0.9028037916692034 F
   0.4999997981021309    0.4999997981021309    0.5600338162944247 F
