Hf1 Ti4 Se10
1.0
   3.5989057597023923    0.0000000013525689    0.0000000000000002
  -1.7994532480384517    3.1167436011553624    0.0000000000000002
  -0.0000000000000002    0.0000000000000004   30.4547353486048351
Hf Ti Se
1 4 10
direct
   0.0000000000000000    0.0000000000000000    0.0000000000000000 Hf
   0.0000000000000000    0.0000000000000000    0.7965231322686722 Ti
   0.0000000000000000    0.0000000000000000    0.5987671094852014 Ti
   0.0000000000000000    0.0000000000000000    0.4012328905147990 Ti
   0.0000000000000000    0.0000000000000000    0.2034768677313277 Ti
   0.6666666666666643    0.3333333333333357    0.7464615712475249 Se
   0.6666666666666643    0.3333333333333357    0.5487020195884044 Se
   0.6666666666666643    0.3333333333333357    0.3512101869140000 Se
   0.6666666666666643    0.3333333333333357    0.1534037736207914 Se
   0.6666666666666643    0.3333333333333357    0.9458085434537840 Se
   0.3333333333333357    0.6666666666666643    0.6487898130859994 Se
   0.3333333333333357    0.6666666666666643    0.4512979804115951 Se
   0.3333333333333357    0.6666666666666643    0.2535384287524752 Se
   0.3333333333333357    0.6666666666666643    0.0541914565462163 Se
   0.3333333333333357    0.6666666666666643    0.8465962263792086 Se
