Rb6 Ga2 O6
1.0
   6.7425172929310255   -0.0074909388528694   -0.8641257117873362
  -1.2315816756453946    6.1165249375953250   -2.7947625791297610
  -0.0039858945542838    0.0338204340499403    6.8365351732071042
Rb Ga O
6 2 6
direct
   0.6546039938633206    0.3719203314071624    0.3719203314069691 Rb
   0.3453960061366795    0.6280796685928374    0.6280796685930308 Rb
   0.4999999999999964    0.1914649431975565    0.8085350568018219 Rb
   0.5000000000000036    0.8085350568024434    0.1914649431981786 Rb
   0.0000000000000657    0.2631655941261624    0.7368344058742425 Rb
  -0.0000000000000657    0.7368344058738375    0.2631655941257575 Rb
   0.8517864295651487    0.8334429341497416    0.8334429341488689 Ga
   0.1482135704348513    0.1665570658502580    0.1665570658511311 Ga
   0.1476759655076702    0.9041679153002948    0.9041679153004231 O
   0.8523240344923299    0.0958320846997050    0.0958320846995767 O
   0.7334532856546898    0.8476926481221831    0.5800928463745226 O
   0.2665467143459361    0.4199071536245441    0.1523073518779687 O
   0.2665467143453102    0.1523073518778166    0.4199071536254770 O
   0.7334532856540641    0.5800928463754559    0.8476926481220310 O
