Na12 Co4 O8
1.0
   4.6581064342500182    0.0000000000000000    0.0000000000000000
   0.0000000000000000    9.3287853816216870   -0.0001926473468787
   0.0000000000000000    0.0001145293208448    9.3290613254369141
Na Co O
12 4 8
direct
   0.5000000000000000    0.1388286109337213    0.1388385314012066 Na
   0.0000000000000000    0.3397934275525983    0.9710611552817829 Na
   0.5000000000000000    0.4710602569312372    0.1601895787141723 Na
   0.0000000000000000    0.6602066769309547    0.0289387657908284 Na
   0.5000000000000000    0.1602077481839798    0.4710612835110864 Na
   0.5000000000000000    0.8397922429599144    0.5289384227940157 Na
   0.5000000000000000    0.5289397556394415    0.8398100762842704 Na
   0.0000000000000000    0.0289398951558157    0.6601886033683769 Na
   0.0000000000000000    0.6388300711064504    0.3611598227189616 Na
   0.0000000000000000    0.3611699133789498    0.6388400844732210 Na
   0.5000000000000000    0.8611713175729100    0.8611612658048239 Na
   0.0000000000000000    0.9710600878189535    0.3398114011407867 Na
   0.5000000000000000    0.1797689998413977    0.8202297217254629 Co
   0.0000000000000000    0.6797695262454811    0.6797706018601196 Co
   0.0000000000000000    0.3202305988825975    0.3202292820732148 Co
   0.5000000000000000    0.8202314189505612    0.1797706123516575 Co
   0.5000000000000000    0.9580261660556250    0.3074097395344224 O
   0.5000000000000000    0.0419750392237710    0.6925912861427406 O
   0.0000000000000000    0.8073958488964643    0.5419623963623423 O
   0.5000000000000000    0.6926048814206883    0.0419632363117281 O
   0.0000000000000000    0.4580274936713369    0.1925889296134531 O
   0.5000000000000000    0.3073933463741096    0.9580346214950674 O
   0.0000000000000000    0.5419724803659987    0.8074110520809509 O
   0.0000000000000000    0.1926041959070303    0.4580375291653132 O
