Tb2 Co2 Si4
1.0
   2.0221433228030881   -8.1239799141729083   -0.0000000000000000
   2.0221433228030881    8.1239799141729083    0.0000000000000000
   0.0000000000000000    0.0000000000000000    3.9933120967347073
Tb Co Si
2 2 4
direct
   0.1073807901310394    0.8926192098689604    0.7500000000000000 Tb
   0.8926192098689603    0.1073807901310395    0.2500000000000000 Tb
   0.6796578755099499    0.3203421244900498    0.2500000000000000 Co
   0.3203421244900498    0.6796578755099499    0.7500000000000000 Co
   0.4570877797200832    0.5429122202799168    0.7500000000000000 Si
   0.5429122202799168    0.4570877797200832    0.2500000000000000 Si
   0.2498890539122574    0.7501109460877425    0.2500000000000000 Si
   0.7501109460877425    0.2498890539122574    0.7500000000000000 Si
