Ag4 S2
1.0
   4.2275985014360904   -0.0626117213503654    0.0000000136503147
  -1.4682306868400548    3.9649474874417465    0.0000000081775781
  -2.7593687834168850   -3.9023367320038753    7.3889024269080004
Ag S
4 2
direct
   0.0000000000000000    0.4999999999999999    0.2500000000000000 Ag
   0.4999999999999999   -0.0000000000000001    0.7500000000000000 Ag
   0.6342197823922436    0.3657802176077584    0.5000000000000286 Ag
   0.3657802176077564    0.6342197823922415   -0.0000000000000289 Ag
   0.0251729281735372    0.9748270718267148    0.5000000000000135 S
   0.9748270718264627    0.0251729281732855   -0.0000000000000135 S
