Na4 Bi8 Au4 O20
1.0
  12.4712784045374114   -0.0000000000000000    0.0000000000000000
   0.0000000000000000   12.4712784045374114    0.0000000000000000
   0.0000000000000000    0.0000000000000000    3.6081611813110954
Na Bi Au O
4 8 4 20
direct
   0.8012103177206200    0.6987896822793801    0.5000000000000000 Na
   0.6987896822793801    0.1987896822793799    0.5000000000000000 Na
   0.1987896822793799    0.3012103177206201    0.5000000000000000 Na
   0.3012103177206201    0.8012103177206200    0.5000000000000000 Na
   0.7691142243307029    0.9505593948973180   -0.0000677044203441 Bi
   0.5494406051026821    0.7308857756692972    0.0000677044203441 Bi
   0.9505593948973180    0.2308857756692972    0.0000677044203441 Bi
   0.2691142243307030    0.5494406051026821   -0.0000677044203441 Bi
   0.2308857756692972    0.0494406051026822   -0.0000677044203441 Bi
   0.7308857756692972    0.4505593948973177   -0.0000677044203441 Bi
   0.0494406051026822    0.7691142243307029    0.0000677044203441 Bi
   0.4505593948973177    0.2691142243307030    0.0000677044203441 Bi
   0.0000000000000000    0.5000000000000000    0.5000000000000000 Au
   0.5000000000000000    0.5000000000000000    0.5000000000000000 Au
   0.5000000000000000    0.0000000000000000    0.5000000000000000 Au
   0.0000000000000000    0.0000000000000000    0.5000000000000000 Au
   0.2866042113059355    0.2133957886940645    0.0000000000000000 O
   0.8837802293471598    0.1138078843591484    0.5000063116708096 O
   0.7866042113059356    0.2866042113059355    0.0000000000000000 O
   0.8861921156408512    0.8837802293471598    0.4999936883291899 O
   0.3861921156408517    0.6162197706528402    0.4999936883291899 O
   0.6162197706528402    0.6138078843591489    0.5000063116708096 O
   0.6138078843591489    0.3837802293471597    0.4999936883291899 O
   0.5042192423535955    0.1610951951756685    0.5000263130178628 O
   0.2133957886940645    0.7133957886940645    0.0000000000000000 O
   0.7133957886940645    0.7866042113059356    0.0000000000000000 O
   0.8389048048243314    0.5042192423535955    0.4999736869821372 O
   0.1138078843591484    0.1162197706528403    0.4999936883291899 O
   0.4957807576464042    0.8389048048243314    0.5000263130178628 O
   0.9957807576464046    0.6610951951756687    0.5000263130178628 O
   0.3837802293471597    0.3861921156408517    0.5000063116708096 O
   0.1162197706528403    0.8861921156408512    0.5000063116708096 O
   0.3389048048243315    0.9957807576464046    0.4999736869821372 O
   0.1610951951756685    0.4957807576464042    0.4999736869821372 O
   0.6610951951756687    0.0042192423535958    0.4999736869821372 O
   0.0042192423535958    0.3389048048243315    0.5000263130178628 O
