In4 Pd8
1.0
   4.2492224973359445    0.0000000000000000    0.0000000000000000
  -0.0000000000000001    5.7247547885503627    0.0000000000000000
   0.0000000000000000    0.0000000000000000    8.3715487366770631
In Pd
4 8
direct
   0.2500000000000000    0.8232221340516769    0.6003767299739355 In
   0.7499999999999999    0.6767778659483229    0.1003767299739356 In
   0.7499999999999999    0.1767778659483228    0.3996232700260643 In
   0.2500000000000000    0.3232221340516770    0.8996232700260645 In
   0.2500000000000000    0.8442474249762534    0.9275826441976717 Pd
   0.7499999999999999    0.6557525750237466    0.4275826441976716 Pd
   0.7499999999999999    0.1557525750237469    0.0724173558023284 Pd
   0.2500000000000000    0.3442474249762531    0.5724173558023283 Pd
   0.2500000000000000    0.9288308168685393    0.2698255137728076 Pd
   0.7499999999999999    0.5711691831314606    0.7698255137728082 Pd
   0.7499999999999999    0.0711691831314604    0.7301744862271918 Pd
   0.2500000000000000    0.4288308168685396    0.2301744862271922 Pd
