Ti3 P1 O2
1.0
   1.5898712186097619   -2.7537380793252710    0.0000000000000000
   1.5898712186097619    2.7537380793252710   -0.0000000000000000
   0.0000000000000000   -0.0000000000000000    7.9818870828306743
Ti P O
3 1 2
direct
   0.6666669999999968    0.3333330000000032    0.7093649786835045 Ti
   0.3333330000000032    0.6666669999999968    0.2906350213164953 Ti
   0.0000000000000000    0.0000000000000000    0.0000000000000000 Ti
   0.0000000000000000    0.0000000000000000    0.5000000000000000 P
   0.6666669999999968    0.3333330000000032    0.1419847303150637 O
   0.3333330000000032    0.6666669999999968    0.8580152696849362 O
