Al4 Ga1 Sb5
1.0
   5.9900367374033374    0.0023016743280712   -9.9737449382781964
  -0.2322686953873903    4.3143584225066327  -10.8022449593715582
   0.0016862183183785   -0.0023016743274839   11.6342651407788225
Al Ga Sb
4 1 5
direct
   0.4002548558587027    0.4001798482197967    0.0000750076389060 Al
   0.7998790650809469    0.8001934325341464    0.9996866325468046 Al
   0.1994932000126584    0.1998065674658536    0.9996866325468046 Al
   0.5998951594191093    0.5998201517802032    0.0000750076389060 Al
   0.0003371113974879   -0.0000000000000000    0.0003371113974879 Ga
   0.7508527240732462    0.4999999999999999    0.2508527240732463 Sb
   0.1502534211706016    0.9002080043119178    0.2500454168586839 Sb
   0.5495441056948722    0.2999460804746272    0.2495980252202452 Sb
   0.9496529447456157    0.7000539195253730    0.2495980252202450 Sb
   0.3498374125467665    0.0997919956880824    0.2500454168586839 Sb
