Li1 Y2 In1
1.0
 -12.7651768069253695    0.7364540355197657   -2.5994573403859302
  -8.5933358942412301   -0.9540933915161239    0.8404819987448171
  -6.3786713810306956    3.7554574740161031   -1.5755169167244170
Li Y In
1 2 1
direct
  -0.0000013633741613    0.0000009897772597    0.0000003127621169 Li
   0.7319091601279245    0.0086927845793911    0.0167506439394178 Y
   0.2680983788809878   -0.0086989885317533   -0.0167547323979704 Y
   0.4999928243652441    0.0000052141751026    0.0000037756964357 In
