In2 Ni6 C1
1.0
   3.8408964341895344    0.0000000000000000    0.0000000000000002
   0.0000000000000006    3.8408964341895344    0.0000000000000002
  -0.0000000000000000    0.0000000000000000    7.4556384579193802
In Ni C
2 6 1
direct
   0.0000000000000000    0.0000000000000000    0.7391135943244771 In
   0.0000000000000000    0.0000000000000000    0.2608864056755226 In
   0.5000000000000000    0.5000000000000000    0.7451777287697176 Ni
   0.5000000000000000    0.5000000000000000    0.2548222712302822 Ni
   0.5000000000000000    0.0000000000000000    0.0000000000000000 Ni
   0.5000000000000000    0.0000000000000000    0.4999999999999999 Ni
   0.0000000000000000    0.5000000000000000    0.0000000000000000 Ni
   0.0000000000000000    0.5000000000000000    0.4999999999999999 Ni
   0.5000000000000000    0.5000000000000000    0.0000000000000000 C
