Tm2 In1 Ni2
1.0
   0.0000000000000000    0.0000000000000000   -3.5890110139947966
  -3.8654435846719157    0.0000000000000000    0.0000000000000000
   1.9327217923359579    7.0555930787325112    0.0000000000000000
Tm In Ni
2 1 2
direct
   0.5000000000000000    0.6392173344875783    0.2784356689751610 Tm
   0.5000000000000000    0.3607826655124219    0.7215643310248393 Tm
   0.0000000000000000    0.0000000000000000    0.0000000000000000 In
   0.0000000000000000    0.8022302718133535    0.6044615436267039 Ni
   0.0000000000000000    0.1977697281866467    0.3955384563732958 Ni
