Mn1 Mo2 S4
1.0
   6.5705581996093105   -1.6361214217415057    0.0135349245748482
   6.5705581996093105    1.6361214217415057    0.0135349245748482
  -2.4083751837324154    0.0000000000000000    5.4271967258728377
Mn Mo S
1 2 4
direct
  -0.0000001698202506   -0.0000001698202506   -0.0000150166662890 Mn
   0.2572597908980693    0.2572597908980693    0.3139970570574347 Mo
   0.7427400485758144    0.7427400485758144    0.6859744562576605 Mo
   0.3602724181449193    0.3602724181449193    0.0223882780134186 S
   0.1084537116546013    0.1084537116546013    0.4480973002971891 S
   0.8915466660618433    0.8915466660618433    0.5518745316120556 S
   0.6397275344850033    0.6397275344850032    0.9775833934285265 S
