Fe1 Sn2 C6 N6
1.0
   3.5818355473202264   -6.2039200269838712    0.0000000000000000
   3.5818351137351678    6.2039202773143529    0.0000000000000000
   0.0000000000000000    0.0000000000000000    5.2847587983144866
Fe Sn C N
1 2 6 6
direct
   0.0000000000000000    0.0000000000000000    0.0000000000000000 Fe
   0.6666669999999968    0.3333330000000032    0.5859265400906164 Sn
   0.3333330000000032    0.6666669999999968    0.4140734599093838 Sn
   0.8275464379427973    0.7551980925006585    0.1977804478686052 C
   0.9276516545607866    0.1724535620523930    0.1977804478686052 C
   0.2448019074964154    0.0723483454469485    0.1977804478686052 C
   0.7551980925035847    0.9276516545530514    0.8022195521313948 C
   0.1724535620572027    0.2448019074993413    0.8022195521313948 C
   0.0723483454392124    0.8275464379476074    0.8022195521313948 C
   0.8870188336937473    0.2892580277212296    0.3114153133583469 N
   0.7107419722686591    0.5977608059495455    0.3114153133583469 N
   0.4022391940375862    0.1129811663292314    0.3114153133583469 N
   0.1129811663062521    0.7107419722787702    0.6885846866416537 N
   0.5977608059624137    0.8870188336707686    0.6885846866416537 N
   0.2892580277313411    0.4022391940504538    0.6885846866416537 N
