Li1 Te1 Pd2
1.0
  -0.0000000000000000    3.2290376139006240    3.2290376139006240
   3.2290376139006240   -0.0000000000000000    3.2290376139006240
   3.2290376139006240    3.2290376139006240    0.0000000000000000
Li Te Pd
1 1 2
direct
   0.2500000000000001    0.2500000000000000    0.2500000000000000 Li
   0.7499990000000026    0.7499990000000026    0.7499990000000026 Te
   0.0000000000000000    0.0000000000000000    0.0000000000000000 Pd
   0.5000009999999976    0.5000009999999975    0.5000009999999975 Pd
