Na4 Cl2
1.0
   0.0000000000000000    3.5013178764725841    0.0000000000000000
   3.4848188130792428    1.7506589382362920   -6.6359788785974230
  -3.4848188130792428    1.7506589382362920   -6.6359788785974230
Na Cl
4 2
direct
   0.6265336282520811    0.8734559330916957    0.3734778104041395 Na
   0.3734663717479191    0.6265221895958605    0.1265440669083044 Na
   0.3734663717479192    0.1265440669083044    0.6265221895958605 Na
   0.6265336282520814    0.3734778104041395    0.8734559330916957 Na
   0.0001026469581568    0.7498973530418436    0.7498973530418435 Cl
  -0.0001026469581562    0.2501026469581563    0.2501026469581563 Cl
