Mg1 Al2 S4
1.0
   3.6757744012111822    0.0059590270980869   11.8405204458664262
   1.8005847883826898    3.2045662192198412   11.8405204485949511
   0.0101641862842058    0.0059590250512458   12.3979490653845534
Mg Al S
1 2 4
direct
   0.0000000000000000    0.0000000000000000    0.0000000000000000 Mg
   0.2364432437570143    0.2364432437556708    0.2364432437610167 Al
   0.7635567562429858    0.7635567562443295    0.7635567562389843 Al
   0.1230795799455836    0.1230795799495334    0.1230795799338182 S
   0.8769204200544161    0.8769204200504663    0.8769204200661818 S
   0.2956950007279325    0.2956950007272737    0.2956950007298937 S
   0.7043049992720676    0.7043049992727263    0.7043049992701060 S
