Be1 Cr1 Sb2
1.0
   3.2095980435831515   -0.0000000000000000   -0.0000000000000000
   0.0000000000000000    3.2095980435831515    0.0000000000000000
   0.0000000000000000   -0.0000000000000000    7.6210056775822723
Be Cr Sb
1 1 2
direct
   0.0000000000000000    0.0000000000000000    0.5696140526327594 Be
   0.5000000000000000    0.5000000000000000    0.6908076037977104 Cr
   0.0000000000000000    0.0000000000000000    0.9010204078672903 Sb
   0.5000000000000000    0.5000000000000000    0.3385579357022400 Sb
