Nd6 Sb8 Au6
1.0
  -5.0584502980917314    5.0584502980917314    5.0584502980917314
   5.0584502980917314   -5.0584502980917314    5.0584502980917314
   5.0584502980917314    5.0584502980917314   -5.0584502980917314
Nd Sb Au
6 8 6
direct
   0.7499999999999999    0.1250000000000000    0.8749999999999999 Nd
   0.1250000000000000    0.7500000000000000    0.3750000000000000 Nd
   0.3749999999999999    0.2499999999999999    0.1250000000000000 Nd
   0.2500000000000000    0.3749999999999999    0.6249999999999999 Nd
   0.6250000000000000    0.8749999999999999    0.2500000000000000 Nd
   0.8750000000000000    0.6250000000000000    0.7500000000000000 Nd
   0.3240102002616565    0.8240102002616564    0.8240102002616564 Sb
  -0.0000000000000000   -0.0000000000000000    0.6759897997383435 Sb
   0.6759897997383435    0.5000000000000000    0.0000000000000000 Sb
   0.5000000000000000    0.1759897997383435    0.5000000000000000 Sb
   0.8240102002616564    0.3240102002616565    0.3240102002616565 Sb
   0.0000000000000000    0.0000000000000000    0.1759897997383435 Sb
   0.4999999999999999    0.6759897997383436    0.5000000000000000 Sb
   0.1759897997383435    0.5000000000000000   -0.0000000000000000 Sb
   0.3750000000000000    0.1250000000000001    0.7500000000000000 Au
   0.1250000000000000    0.3750000000000000    0.2500000000000000 Au
   0.7499999999999998    0.6249999999999999    0.3749999999999999 Au
   0.2500000000000000    0.8750000000000000    0.1250000000000000 Au
   0.8749999999999999    0.2500000000000000    0.6249999999999999 Au
   0.6250000000000000    0.7500000000000000    0.8750000000000000 Au
