Mg2 In2 Se6
1.0
   7.0010006000803582   -0.0918319807313952    1.2202681465106771
  -3.7565884921100188    5.9085095765308795    1.2202681465106773
   0.4793269578508190    0.8593514892711267    6.6880470231328086
Mg In Se
2 2 6
direct
   0.6703909290726721    0.3296090709273277    0.0000000000000000 Mg
   0.3296090709273277    0.6703909290726722   -0.0000000000000000 Mg
   0.8370711569853448    0.8370711569853450    0.3464320866180347 In
   0.1629288430146546    0.1629288430146547    0.6535679133819655 In
   0.5131956605658456    0.8744801650073291    0.2641420672958132 Se
   0.4868043394341539    0.1255198349926707    0.7358579327041871 Se
   0.1255198349926707    0.4868043394341539    0.7358579327041871 Se
   0.8744801650073287    0.5131956605658455    0.2641420672958131 Se
   0.7495659575183996    0.7495659575183997    0.7750348917278773 Se
   0.2504340424816002    0.2504340424816002    0.2249651082721230 Se
