Cr8 Fe3 Cu1 S16
1.0
   6.8864425319048381   -0.0000000000000000    0.0000000000000004
   0.0000000000000016    9.7259868522396946    0.0000000000000006
   0.0000000000000000   -0.0000000000000000    6.8864425319048381
Cr Fe Cu S
8 3 1 16
direct
   0.2500000000000000    0.7484678696441976    0.2500740643246465 Cr
   0.7500000000000000    0.2514628740302426    0.7495057327731073 Cr
   0.7500000000000000    0.2514628740302426    0.2504942672268927 Cr
   0.2500000000000000    0.7484678696441976    0.7499259356753533 Cr
   0.5000740643246466    0.5015321303558024    0.0000000000000000 Cr
   0.9995057327731073   -0.0014628740302426    0.5000000000000000 Cr
  -0.0000740643246466    0.5015321303558024    0.0000000000000000 Cr
   0.5004942672268928   -0.0014628740302426    0.5000000000000000 Cr
   0.2500000000000000    0.3741649430129403    0.5000000000000000 Fe
   0.7500000000000000    0.8758350569870599    0.0000000000000000 Fe
   0.7500000000000000    0.6250000000000000    0.5000000000000000 Fe
   0.2500000000000000    0.1250000000000000    0.0000000000000000 Cu
   0.4927786844882296    0.7506585956056119    0.5000000000000000 S
   0.9833263777910920    0.2600451322127604    0.0000000000000000 S
   0.2500000000000000    0.9899548677872400    0.2666736222089080 S
   0.7500000000000000    0.4993414043943881    0.7572213155117705 S
   0.2500000000000000    0.9899548677872400    0.7333263777910920 S
   0.7500000000000000    0.4993414043943881    0.2427786844882296 S
   0.9941156356321255    0.2454291841208077    0.5000000000000000 S
   0.7500000000000000    0.0045708158791923    0.2558843643678747 S
   0.5058843643678745    0.2454291841208077    0.5000000000000000 S
   0.0074933820558975    0.7483302949090960    0.0000000000000000 S
   0.7500000000000000    0.0045708158791923    0.7441156356321255 S
   0.2500000000000000    0.5016697050909040    0.2425066179441025 S
   0.5166736222089081    0.2600451322127604    0.0000000000000000 S
   0.2500000000000000    0.5016697050909040    0.7574933820558974 S
   0.4925066179441024    0.7483302949090960    0.0000000000000000 S
   0.0072213155117704    0.7506585956056119    0.5000000000000000 S
