Be1 Co1 Hg2
1.0
   2.9470170850475186    0.0000000000000000    0.0000000000000000
   0.0000000000000000    2.9470170850475186    0.0000000000000000
  -0.0000000000000000    0.0000000000000000    7.2745598868948020
Be Co Hg
1 1 2
direct
   0.0000000000000000    0.0000000000000000    0.5748952353061454 Be
   0.4999999999999999    0.4999999999999999    0.6816170715519373 Co
   0.0000000000000000    0.0000000000000000    0.9432341372580495 Hg
   0.4999999999999999    0.4999999999999999    0.3002535558838679 Hg
