Mn  V Ga 
 1.0000000000000000
    -2.9013545753703780   -2.9013545753703780   -0.0000000000000000
    -2.9013545753703780   -0.0000000000000000   -2.9013545753703780
     0.0000000000000000   -2.9013545753703780   -2.9013545753703780
 Mn  V   Ga 
   2   1   1
Cartesian
  0.0000000000000000  0.0000000000000000  0.0000000000000000
 -2.9013499999999999 -2.9013499999999999 -2.9013499999999999
 -4.3520249999999994 -4.3520249999999994 -4.3520249999999994
 -1.4506749999999999 -1.4506749999999999 -1.4506749999999999
