Hf Bi 
 1.0000000000000000
     6.3102915539643609    0.0000000007455651    0.0000000000000004
    -3.1551459976181548    5.4648726636352718    0.0000000000000004
    -0.0000000000000000   -0.0000000000000000    5.2275558678998539
 Hf  Bi 
   6   2
Cartesian
  0.0000015409232139  1.7643018476157208  1.3068900000000001
  1.6272117606278222  4.5827163437576113  1.3068900000000001
 -1.6272138361110613  4.5827163437566840  1.3068900000000001
  3.1551384590767868  3.7005681523842791  3.9206700000000003
  1.5279282393721776  0.8821536562423891  3.9206700000000003
  4.7823538361110618  0.8821536562433175  3.9206700000000003
 -0.0000033333333108  3.6432466666666539  3.9206700000000003
  3.1551433333333114  1.8216233333333465  1.3068900000000001
