Nd In Au 
 1.0000000000000000
    -4.1316793498949753    0.0035630903225797   -0.0006708511031753
     0.0067619805812978    7.8620338970139736    0.0018267167849304
    -0.0022749253780982   -3.9294270876485315   -6.8096347350873057
 Nd  In  Au 
   3   3   3
Cartesian
 -2.0667817733455744 -1.5979734661813603 -2.7726411997389375
 -2.0631562493645630  3.2025292009207722  0.0003730374797790
 -2.0630648605316133  2.3333392729793809 -4.0365153789978629
 -0.0016938383833229 -2.9247504802248985 -5.0686278989860512
  0.0050294681788214  5.8519382332783376  0.0013814947561429
  0.0011599064531865  1.0054422079264718 -1.7405930530811600
 -2.0658520837737027  0.0018131735813914 -0.0003449239610218
  0.0007469455067901  0.0010468228378298 -4.5391172952837318
  0.0037224897499177  3.9315389674820671 -2.2686615899872344
