Pr Ru 
 1.0000000000000000
     6.5090385059375926   -0.0000000000000000    0.0000000000000004
     0.0000000000000012    7.4231550717235226    0.0000000000000005
    -0.0000000000000000   -0.0000000000000000    9.8420378036919782
 Pr  Ru 
  12   4
Cartesian
  2.1524378442828604  5.0281921561798457  0.6577310121993999
  1.1020821557171392  1.3166121561798434  4.2632889878006024
  4.3566021557171384  2.3949678438201567  5.5787510121994002
  5.4069578442828616  6.1065478438201541  9.1843089878006019
  4.3566021557171384  2.3949678438201567  9.1843089878006019
  5.4069578442828616  6.1065478438201541  5.5787510121994002
  2.1524378442828604  5.0281921561798457  4.2632889878006024
  1.1020821557171392  1.3166121561798434  0.6577310121993999
  5.5632299380014771  4.0115544513960799  2.4605100000000002
  4.2003300619985229  0.2999744513960786  2.4605100000000002
  0.9458100619985219  3.4116055486039216  7.3815300000000006
  2.3087099380014795  7.1231855486039208  7.3815300000000006
  0.3736430943113840  6.5693336965657716  2.4605100000000002
  2.8808769056886159  2.8577536965657688  2.4605100000000002
  6.1353969056886157  0.8538263034342314  7.3815300000000006
  3.6281630943113834  4.5654063034342292  7.3815300000000006
