Tb Sb Au 
 1.0000000000000000
    -4.9691465360092399    4.9691465360092399    4.9691465360092399
     4.9691465360092399   -4.9691465360092399    4.9691465360092399
     4.9691465360092399    4.9691465360092399   -4.9691465360092399
 Tb  Sb  Au 
   6   8   6
Cartesian
  3.7268624999999997  2.4845750000000004  4.9691500000000000
 -0.0000000000000001  1.2422875000000002  7.4537250000000004
  0.0000000000000001  3.7268624999999997  2.4845750000000000
  2.4845750000000000  0.0000000000000000  1.2422875000000000
  2.4845749999999995  4.9691500000000000 -1.2422875000000000
  6.2114374999999997  2.4845750000000000  0.0000000000000001
  3.3799442907431136  3.3799442907431136  1.5892057092568863
  3.3799442907431136  1.5892057092568863 -1.5892057092568863
  1.5892057092568863  6.5583557092568867  1.5892057092568868
 -3.3799442907431136  3.3799442907431136  3.3799442907431136
  5.8645192907431136 -0.8953692907431137  0.8953692907431137
  4.0737807092568863 -0.8953692907431136  4.0737807092568863
 -0.8953692907431136  0.8953692907431136  0.8953692907431136
  0.8953692907431136  0.8953692907431136  4.0737807092568863
 -1.2422875000000002  2.4845750000000000  4.9691500000000000
  1.2422875000000000  2.4845750000000000  0.0000000000000001
  4.9691500000000000  1.2422875000000002  2.4845750000000000
  4.9691500000000000  3.7268625000000002 -2.4845750000000000
  2.4845750000000004 -0.0000000000000002  6.2114374999999997
  2.4845749999999995  4.9691500000000000  3.7268625000000002
