Tm Ga 
 1.0000000000000000
     8.4277576369455645    0.0000000090575262    0.0000000000000005
    -4.2138796182528555    7.2986517487798706    0.0000000000000005
    -0.0000000000000000   -0.0000000000000000    6.3729006134198967
 Tm  Ga 
  10   6
Cartesian
  4.2138799999999694  2.4328833333333506  0.0000000000000000
  0.0000000000000298  4.8657666666666497  0.0000000000000000
  0.0000000000000298  4.8657666666666497  3.1864499999999998
  4.2138799999999694  2.4328833333333506  3.1864499999999998
  3.1928336279263299  5.5301468381787124  4.7796749999999992
  2.0420927441461996  0.0000000000006576  4.7796749999999992
 -1.0210463720725302  1.7685031618206299  4.7796749999999992
  1.0210463720736689  1.7685031618212868  1.5932249999999999
  6.3856672558538010 -0.0000000000006576  1.5932249999999999
 -3.1928336279274703  5.5301468381793715  1.5932249999999999
  1.6880873496948037  2.9238513519250620  4.7796749999999992
  5.0515853006106042 -0.0000000000001226  4.7796749999999992
 -2.5257926503054082  4.3747986480750605  4.7796749999999992
  2.5257926503051951  4.3747986480749370  1.5932249999999999
  3.3761746993893960  0.0000000000001226  1.5932249999999999
 -1.6880873496945916  2.9238513519249403  1.5932249999999999
