Mg  W  F 
 1.0000000000000000
     2.7990841230439107   -0.0000000000000000   -0.0000000000000000
     0.0000000000000000    2.7990841230439107    0.0000000000000000
     0.0000000000000000    0.0000000000000000    7.6449639035658272
 Mg  W   F  
   2   1   1
Cartesian
  0.0000000000000000  0.0000000000000000  2.1131215997458481
  0.0000000000000000  0.0000000000000000  5.5318409979962144
  1.3995418605013099  1.3995418605013099  0.0000000000000000
  1.3995418605013099  1.3995418605013099  3.8224812988710299
