Ba Al Fe  O 
 1.0000000000000000
     3.7108615072961313    0.0609434438069590    0.0517119388133639
    -0.0600592206602098    4.5641990942185524   -0.4664303818390111
    -0.1545371976650519    0.0031675699775634   10.7647194217184303
 Ba  Al  Fe  O  
   2   1   3   7
Cartesian
  1.7620676651502336  2.1663249257593633  8.5766586278839139
  1.8561166674721281  2.5376948416778293  1.7730426262911176
  1.1452467057474207  2.3181916308451460  5.1644176143135567
 -0.2003199496530918  4.2849193556226339  6.4905811836530241
  3.6076417488383736  0.3668401740235067  3.8574359337645934
  0.0441479529996202  0.1726750220805017 -0.0172933608395898
  0.0483814912383183  2.0416806962073077 -0.2075440642740661
  1.7257591642741279  3.6305315420131126  6.2279684538427809
  1.7931279682980310  1.0310403802267938  4.1078546630147823
  0.0847920028605848  1.5096093439195175  6.3760750054377304
  0.0862379103184394  3.0874959566690681  3.9280997328736129
 -0.1714552883733796  4.3210591291925020  8.4721570963533903
 -0.0040600792907919  0.1478666205626772  1.8388895435252932
