Tb In Pt 
 1.0000000000000000
     3.8312753697549371   -6.6359639621627053   -0.0000000000000000
     3.8312753697549371    6.6359639621627053    0.0000000000000000
     0.0000000000000000    0.0000000000000000    3.8876614981216773
 Tb  In  Pt 
   3   3   3
Cartesian
  1.5536336641070378 -2.6909677313244527  0.0000000000000000
  1.5536336641070376  2.6909677313244527  0.0000000000000000
  4.5552926717859243 -0.0000000000000000  0.0000000000000000
  1.9964191830555404 -0.0000000000000000  1.9438299999999999
  2.8330704084722300  4.9070132978547409  1.9438299999999999
  2.8330704084722296 -4.9070132978547401  1.9438299999999999
  0.0000000000000000  0.0000000000000000  0.0000000000000000
  3.8312800000000000 -2.2119910906399576  1.9438299999999999
  3.8312800000000000  2.2119910906399571  1.9438299999999999
