Nd Cu 
 1.0000000000000000
     4.1847447603722641   -0.0000000000000000    0.0000000000000000
    -0.0000000000000000    4.1847447603722641    0.0000000000000000
    -0.0000000000000000   -0.0000000000000000    4.1847447603722641
 Nd  Cu 
   1   3
Cartesian
  0.0000000000000000  0.0000000000000000  0.0000000000000000
  0.0000000000000000  2.0923699999999998  2.0923699999999998
  2.0923699999999998  0.0000000000000000  2.0923699999999998
  2.0923699999999998  2.0923699999999998  0.0000000000000000
