Li Al Co  O 
 1.0000000000000000
     0.0000000000000000    4.9759385375041321    0.0128626490586817
     5.4037301886828750    0.0000000000000000    0.0000000000000000
     0.0000000000000000   -4.9452674697011512   -6.3179390609315789
 Li  Al  Co  O  
   4   2   2   8
Cartesian
  1.7932212485620549 -2.4531465918015272 -4.7522750582495794
  4.4978961801635347  2.4987226581836444 -0.0197420988907947
  3.6105087514379481  0.0194884081984709 -1.5933050582495818
  0.9058338198364654  0.0260876581836431 -3.1787120988907964
  3.6180024374837294  0.0096593943459705 -4.7519701595376835
  1.7857275625162692  2.4822943943460052 -1.5930001595376393
  0.9004463338698339  4.9733413725318991  0.0134529846236340
  4.5032836661301650  2.5007063725318988 -3.1455170153763663
  3.6686344829560467 -1.7783872613904721 -4.6917100991989109
  0.9786219346347108  3.0894030941233805 -0.1230972991204330
  0.9012578380906506 -1.9649950888531631 -3.0667373195998242
  3.4860504647562380  3.0113500545302645 -1.6487046851064311
  1.7350955170439530  0.6942477386095273 -1.5327400991989117
  4.4251080653652899  0.6167680941233799 -3.2820672991204338
  4.5024721619093508 -4.4376300888531643 -6.2257073195998256
  1.9176795352437634  0.5387150545302642 -4.8076746851064316
