Ca  B  H 
 1.0000000000000000
     1.5978751522016592   -4.2288371263349616    0.0000000000000000
     1.5978751522016592    4.2288371263349616    0.0000000000000000
     0.0000000000000000    0.0000000000000000    7.8466153914749945
 Ca  B   H  
   2   4   4
Cartesian
  1.5978799999999997 -2.8943337730548153  0.3888660450001703
  1.5978800000000000  2.8943337730548149  4.3121760450001707
  1.5978800000000006 -0.7144540114384901  2.1209028353959489
  1.5978800000000006  0.7144540114384899  6.0442128353959479
  1.5978800000000000  3.1964717367668718  1.5938589355397013
  1.5978799999999997 -3.1964717367668718  5.5171689355397007
  1.5978800000000002 -0.1656451010750224  3.2400376844779859
  1.5978800000000000  0.1656451010750226  7.1633476844779862
  1.5978799999999997 -2.8346193497096470  4.3101345235861874
  1.5978799999999997  2.8346193497096470  0.3868245235861855
