Sr Nd Se 
 1.0000000000000000
     7.8222465684726581    0.0029275353544727   -0.0050707047397591
    -2.6046555412221144    7.3758610405342449    0.0050707053677403
    -2.6129364778049098   -3.6864662570463085    6.3851476750172154
 Sr  Nd  Se 
   2   4   8
Cartesian
 -3.2620362500000000  2.3066000000000004  5.5901750000000003
  0.6490912499999999 -0.4589799999999999  3.9900850000000001
 -0.6618206711529686  3.2350198049811856  2.4081122894941682
  3.2706106711529697  5.9884651950188150  0.7869977105058321
  3.2493055972809985  1.8325591216034018  1.5950199999999810
  4.5687994027190015 -1.8267041216034021  4.7850600000000210
  0.3508314259953072  0.5915819701706072  0.9241432223084456
  1.4584137672797846  3.6631730012250530  0.0551031330713580
  1.6610650466162005  2.4405380922266287  4.1118752030949954
  1.7389984370135507 -3.1486542411623510  5.4633147918348808
  0.4408084445924547  6.0620524078267737  2.2709667726214557
  4.2619477415114879  4.4394364987215198  3.1423148912122372
  5.3695387748587642  3.6562496502142015  0.0477251138578885
  5.5721863621324532  0.7543026207775677  3.1349368719987414
