Na Sb  O 
 1.0000000000000000
     7.7822023919474965   -0.0000000000000000   -2.7514241419511754
    -3.8911011959737483    6.7395850343784698   -2.7514241419511754
     0.0000000000000000    0.0000000000000000    8.2542724258535269
 Na  Sb  O  
  12   4  12
Cartesian
 -0.9191640109437387  4.8796608791523797  3.3131436128486542
 -1.0738294469143455  1.8599291208476194  3.5318712743843945
  1.8682172820146710  3.2358506622016128  3.5989687402117618
  0.1247761758433591  3.5037393377983879 -2.1897036274447337
  2.9719359890563171  1.8599291208476194 -2.1897036274447341
 -2.0228827179853308  3.5037393377983879  0.8475439389542625
  4.0158761758434141  3.2358506622016128  0.5617211738126865
  0.7943878351002985  5.0957797830492790  0.5617211738126855
  4.0457654359706590  0.0000000000000000  0.8475439389542645
  2.1476588938286900  0.0000000000000000  3.5318712743843954
  4.6854878351003508  1.6438102169507196  3.3131436128486560
  2.8172705530856557  4.8796608791523797 -1.9709714853222937
  5.5404866674294846  0.0000000000000000 -1.9588555712405076
  0.0000000000000000  0.0000000000000000  5.8765738331564714
 -2.7702433337147432  4.7982072600224894 -1.9588555712405082
  1.1208566662852579  1.9413827399775092  0.7925673093245426
  4.0386069486427392  0.0000000000000000  4.9925123165675585
 -1.1548004669698850  4.9949180886265605 -0.8165640707653565
  4.9031216292942768  1.4973714496509107 -0.8165640707653560
  6.0531862030969945  0.0000000000000000  2.1434677334216667
 -3.0265931015484977  5.2422185503490875  2.1434677334216667
  0.8645068984515013  1.4973714496509107  4.8948982094462155
  4.0338827287756267  3.4975398993856190 -3.5679835410998573
  1.0120138470942426  5.2422185503490875 -3.5679835410998568
 -2.0193034743213691  3.4975398993856199  4.9925123165675576
  0.1427749465755922  3.2420501006143820  1.9348640207761332
  2.7363073152301505  1.7446719113734397  1.9348640207761338
  1.8717965256786300  3.2420501006143820 -0.5103411272465022
