Ba Cu  S Cl 
 1.0000000000000000
     4.6434027935300728    0.0389696928562186   -7.0867019728605678
    -0.3811164773564176    4.6278999957444666   -7.0867019728605687
    -0.0355913063150871   -0.0389696928592759    8.4723826409089682
 Ba  Cu  S   Cl 
   2   1   2   2
Cartesian
  1.5120674490932446  1.6555979935972747 -5.0280921907941734
  2.7502125509067561  3.0112720064027263 -9.1453078092058302
  0.0000000000000000  0.0000000000000000  0.0000000000000000
  0.6709120269020695  0.7345972603837527 -2.2309901090716191
  3.5913679730979302  3.9322727396162476 -11.9424098909283813
  2.3039049999999999  0.0000000000000000  0.6928399999999995
 -0.2083550000000000  2.2944650000000002  0.6928399999999995
