Ho Ag Os 
 1.0000000000000000
     4.2487268322112559    0.0000000019096394    2.4530036984204249
     1.4162419476712691    4.0057384039801418    2.4530036984204249
     0.0000000000000000    0.0000000000000000    4.9060073968408497
 Ho  Ag  Os 
   2   1   1
Cartesian
  1.4162425000000001  1.0014350000000001  2.4530025000000002
  4.2487275000000002  3.0043050000000004  7.3590075000000006
  2.8324850000000001  2.0028700000000002  4.9060050000000004
  0.0000000000000000  0.0000000000000000  0.0000000000000000
