Ho Si Ni 
 1.0000000000000000
    -2.8265486261164190    4.7786925891547876    5.5504644842166853
     2.8265486261164190   -4.7786925891547876    5.5504644842166853
     2.8265486261164190    4.7786925891547876   -5.5504644842166853
 Ho  Si  Ni 
   4  10   6
Cartesian
  0.0000000000000001  2.5176200171135221  1.4575970432251726
  2.8265500000000001  2.2610699828864798  4.0928629567748311
 -0.0000000000000006  2.2610699828864802  7.0080570432251710
  2.8265500000000001  2.5176200171135199 -1.4575970432251710
  2.8265499999999988  1.4592307169838030  1.1877146723283940
  0.0000000000000003  3.3194592830161964  4.3627453276716084
  4.2398249999999997  0.0000000000000002  2.5927328302240786
  1.4132750000000003  4.7786900000000001  2.9577271697759224
 -1.4132750000000003  4.7786900000000001  2.9577271697759215
  1.4132749999999996  0.0000000000000009  2.5927328302240777
  1.4132750000000001  0.0000000000000000  5.5504600000000002
 -0.0000000000000379  8.0981492830162640  1.1877146723284664
  2.8265500000000414 -3.3194592830162639  4.3627453276715285
  1.4132750000000001  4.7786900000000001 -0.0000000000000002
  2.8265499999999797 -1.0784361119678332  4.0561412715849370
  2.8265500000000214  3.7002538880320990  1.4943187284150607
 -0.0000000000000200  1.0784361119679022  4.0561412715849334
  4.2398249999999997  0.0000000000000002 -0.0000000000000002
  1.4132750000000001  0.0000000000000000  0.0000000000000000
 -0.0000000000000014  5.8571261119678670  1.4943187284151069
