In Ge Cl 
 1.0000000000000000
    -5.3049651978894863    0.1327452624548920   -0.3516934028084583
     0.0847390647553904    0.1224661909677062   -5.3163950102805320
     0.1290131120880386   -5.3156839150844748    0.1522440537307208
 In  Ge  Cl 
   1   1   3
Cartesian
 -4.8644634069363635 -0.0578079376490875 -5.2684540140845213
 -2.5057594177427469 -2.5099050093284290 -2.7036502066087786
 -0.0482927973834529 -2.4034008468321346 -2.7091061174469271
 -2.6068286452405447 -4.9643925861233607 -2.8086465113377663
 -2.7113036128468679 -2.3979537104969868 -0.2557438091020018
