Zn Cu Si  S 
 1.0000000000000000
     6.1664040794598991    0.0000000000000000    0.0000000000000000
     0.0000000000000000    6.4551976364332804    0.0000000000000000
     0.0000000000000000    0.0000000000000000    7.3571585691349064
 Zn  Cu  Si  S  
   2   4   2   8
Cartesian
  3.0726088940555960  5.4780205693611492  0.0000000000000000
  6.1558088940555971  0.9771794306388489  3.6785800000000002
  6.0912439963884815  4.3431830970210106  1.8220671405737137
  3.0080439963884809  2.1120169029789904  1.8565128594262856
  3.0080439963884809  2.1120169029789904  5.5006471405737152
  6.0912439963884815  4.3431830970210106  5.5350928594262854
  6.1620900136154040  1.1002437631821345  0.0000000000000000
  3.0788900136154052  5.3549562368178645  3.6785800000000002
  4.0010581397204836  1.1671005328849888  0.0000000000000000
  0.9178581397204838  5.2880994671150097  3.6785800000000002
  0.7113441001093477  5.5244991205711020  0.0000000000000000
  3.7945441001093494  0.9307008794289000  3.6785800000000002
  3.8064758298610633  4.2929671461958137  1.9341971835928466
  0.7232758298610626  2.1622328538041864  1.7443828164071542
  0.7232758298610626  2.1622328538041864  5.6127771835928426
  3.8064758298610633  4.2929671461958137  5.4229628164071579
