Nd Zr 
 1.0000000000000000
     3.5478346349027654   -6.1450298839571111   -0.0000000000000000
     3.5478346349027654    6.1450298839571111   -0.0000000000000000
     0.0000000000000000   -0.0000000000000000    5.7293439755698738
 Nd  Zr 
   6   2
Cartesian
  5.2701901056480009  1.0539328417507814  4.2970049999999995
  1.8254698943519982  1.0539328417507803  4.2970049999999995
  3.5478300000000003  4.0371520264383838  4.2970049999999995
  1.8254698943519985 -1.0539328417507805  1.4323349999999999
  5.2701901056480009 -1.0539328417507812  1.4323349999999999
  3.5478300000000003 -4.0371520264383838  1.4323349999999999
  3.5478299999999998  2.0483474300199607  1.4323349999999999
  3.5478299999999998 -2.0483474300199607  4.2970049999999995
