Mg Cd  S 
 1.0000000000000000
     3.7976910736732625    0.0000000000000000    0.0000000000000000
     0.0000000000000000    3.7976910736732625    0.0000000000000000
     0.0000000000000000    0.0000000000000000    5.3773123247905348
 Mg  Cd  S  
   1   1   2
Cartesian
  1.8988449999999999  1.8988449999999999  2.6886549999999998
  0.0000000000000000  0.0000000000000000  0.0000000000000000
  0.0000000000000000  0.0000000000000000  2.6886549999999998
  1.8988449999999999  1.8988449999999999  0.0000000000000000
