 K Ba Ta  P 
 1.0000000000000000
    10.1618118596327456    0.0251560676231573    0.1234525831429443
    -5.1407346754373249    8.7656089403456381    0.1234525831429443
     0.0007455246294585    0.0013052441905995    7.9248113081755580
 K   Ba  Ta  P  
  10   2   2   8
Cartesian
  2.0335294449463079  4.6241224065767890  4.0951878781863202
 -2.1053476519289576  4.6210000604395525  4.0396824923624104
  2.9495190627584624  4.1000615456049347  0.1327828781863189
  5.0494614689162178  0.5334726164504358  0.0772774923624119
  8.0729385714032453  1.2616196983835828  5.4877788607042914
  2.1908748652232570  1.3511680107083954  5.6464981852824705
  5.0064882660870085  6.3134507257115340  5.4501753302296310
 -3.0148962508262294  7.5938602963173656  1.5253738607042922
  2.8942923332054828  7.5190180438890613  1.4877703302296315
  0.0504411133485039  2.5728641052210510  1.6840931852824694
  7.0879207373008848  4.0934915217395131  8.0418990767433787
 -0.0752672857651921  8.1840664147806610  4.0794940767433792
  5.0699456282181643  2.9444311002355725  3.2410971298943299
 -0.0390852083787288  5.8634582295999342  7.2035021298943303
  5.1546496314381987  2.9432489602577485  5.6537107395836692
 -0.0838839490272618  5.9345066208114448  1.6913057395836704
  7.0501268596673707  1.7728771663146807  2.4281753389948730
  3.0956854357581567  1.7329796837163358  2.5309588475408473
  5.0785383210043396  5.2095623501102724  2.4048836071177591
 -2.0541693784969137  6.9739056810130924  6.3905803389948730
  1.9076093959671374  7.0215913698214720  6.3672886071177031
 -0.0795999983994438  3.5474970387066058  6.4933638475408495
