Dy Cd 
 1.0000000000000000
     4.8759359807399862   -0.0000000000000001   -0.0000000000000001
     0.0000000000000000    5.9222399391549354   -2.6901680166647362
     0.0000000000000001   -0.0658659982617921    6.5042752123916898
 Dy  Cd 
   2   6
Cartesian
  3.6569550000000000  2.0867373378136058  3.1990567263883634
  1.2189850000000000  3.7696326621863956  0.6150532736116343
  3.6569550000000000  4.8782862018339470 -1.0872300073298065
  1.2189850000000000  0.9780837981660524  4.9013400073298063
  3.6569550000000000  1.8452554697934744 -0.0046759908873661
  1.2189850000000000  4.0111145302065250  3.8187859908873656
  1.2189850000000000  0.7418293612665748  1.6895808252632216
  3.6569550000000000  5.1145406387334269  2.1245291747367756
