Sc Al  C 
 1.0000000000000000
     4.5021835442789921   -0.0000000000000000    0.0000000000000000
     0.0000000000000000    4.5021835442789921   -0.0000000000000000
    -0.0000000000000000   -0.0000000000000000    4.5021835442789921
 Sc  Al  C  
   3   1   1
Cartesian
  0.0000000000000000  2.2510900000000000  2.2510900000000000
  2.2510900000000000  2.2510900000000000  0.0000000000000000
  2.2510900000000000  0.0000000000000000  2.2510900000000000
  0.0000000000000000  0.0000000000000000  0.0000000000000000
  2.2510900000000000  2.2510900000000000  2.2510900000000000
