Hf Be Te 
 1.0000000000000000
     0.0000000000000000    4.0475589703627195    4.0475589703627195
     4.0475589703627195    0.0000000000000000    4.0475589703627195
     4.0475589703627195    4.0475589703627195    0.0000000000000000
 Hf  Be  Te 
   4   1   1
Cartesian
  5.0720524290272513  3.0230675709726911  3.0230675709726911
  5.0720524290272513  5.0720524290272513  5.0720524290272513
  3.0230675709726911  5.0720524290272513  3.0230675709726915
  3.0230675709726915  3.0230675709726915  5.0720524290272513
  0.0000000000000000  0.0000000000000000  0.0000000000000000
  2.0237799999999999  2.0237799999999999  2.0237799999999999
