Cu Sb 
 1.0000000000000000
     4.2395273181688955    0.0000000000000000    0.0000000000000000
    -0.0000000000000000    5.3008535655205389    0.0000000000000000
     0.0000000000000000    0.0000000000000000    5.4264728135080098
 Cu  Sb 
   6   2
Cartesian
  3.1796475000000002  4.0494244628857450  4.0698524999999997
  1.0598825000000001  1.2514255371142522  1.3566175000000000
  1.0598825000000001  3.4087778765848427 -0.0276298817052276
  1.0598825000000001  3.4087778765848427  2.7408648817052295
  3.1796475000000002  1.8920721234151563  0.0276298817052281
  3.1796475000000002  1.8920721234151563  2.6856051182947720
  3.1796475000000002  4.5099209863778915  1.3566175000000000
  1.0598825000000001  0.7909290136221068  4.0698524999999997
