Ag  N  O 
 1.0000000000000000
     2.9629942362037411    0.0000000000000000   -0.0000000000000000
    -0.0000000000000000    2.9629942362037411   -0.0000000000000000
     0.0000000000000000    0.0000000000000000    5.5532350594706585
 Ag  N   O  
   1   1   2
Cartesian
  0.0000000000000000  0.0000000000000000  2.0698956972165554
  1.4814925490918611  1.4814925490918611  4.6356419384205880
  0.0000000000000000  0.0000000000000000  4.1302381213304127
  1.4814925490918611  1.4814925490918611  0.2707042430324436
