Fe  O 
 1.0000000000000000
     4.9063726732056381   -2.8327856461315881   -0.0053617064548277
     4.9063726732056381    2.8327856461315881   -0.0053617064548277
     3.2758682751195165    0.0000000000000000    4.6223244279550295
 Fe  O  
   6   8
Cartesian
 11.4525251910235468  0.0000000000000002  4.0351469843569481
  1.6360848089764497  0.0000000000000000  0.5764530156430513
  6.5443049999999996  0.0000000000000000  2.3058000000000001
  4.9063699999999999 -0.0000059829562730 -0.0053600000000000
  4.0911182781621296 -1.4163920085218635  2.3084848869148589
  4.0911217218378706  1.4163979914781366  2.3084751130851413
  9.7098282147504786 -0.0000000000000000  3.4211305704076529
  3.3787817852495192 -0.0000000000000001  1.1904694295923466
  7.4165043691101316  1.3241018532651601  3.4236470903498244
  8.1786357515989696  0.0000061866002513  1.2605681844216166
  7.4165079299994705 -1.3241080398654115  3.4236369838448408
  5.6721020700005287 -1.3241080398654108  1.1879630161551595
  5.6721056308898676  1.3241018532651594  1.1879529096501762
  4.9099742484010314  0.0000061866002515  3.3510318155783829
