Mn Be Sn 
 1.0000000000000000
     3.0917382898233643   -0.0000000000000000   -0.0000000000000000
    -0.0000000000000000    3.0917382898233643    0.0000000000000000
     0.0000000000000000    0.0000000000000000    5.2916387133811451
 Mn  Be  Sn 
   1   2   1
Cartesian
  1.5458700000000001  1.5458700000000001  0.0000000000000000
  0.0000000000000000  0.0000000000000000  4.2962019615181166
  0.0000000000000000  0.0000000000000000  0.9954380384818819
  1.5458700000000001  1.5458700000000001  2.6458200000000001
