Lu Fe Si  C 
 1.0000000000000000
    -0.0000000015732149   -3.8608100632963183   -0.0000000010178588
     4.0502303025453239   -1.9304045332980106   -3.2917670057677584
     4.0317122647290278   -1.9304045315787763    3.3090742695265440
 Lu  Fe  Si  C  
   2   2   2   1
Cartesian
  4.5272376586007486 -3.8608044044709731 -1.7599277407957887
  3.5547023413992522 -3.8608055955290270  1.7772277407957890
  1.6399630441301216 -3.8608079732178977 -0.6842042634778769
  6.4419769558698787 -3.8608020267821028  0.7015042634778772
  5.3143768657901678 -5.7912103536493271  0.3382541754793303
  2.7675631342098330 -1.9303996463506730 -0.3209541754793322
  0.0000000000000000  0.0000000000000000  0.0000000000000000
