Ca Be Fe 
 1.0000000000000000
     5.0240258618277798    0.0000000000000000    0.0000000000000000
     0.0000000000000000    5.0240258618277798    0.0000000000000000
    -0.0000000000000000    0.0000000000000000    3.4210770368002681
 Ca  Be  Fe 
   2   1   1
Cartesian
  2.5120149999999999  0.0000000000000000  0.0000000000000000
  0.0000000000000000  2.5120149999999999  0.0000000000000000
  0.0000000000000000  0.0000000000000000  1.7105399999999999
  2.5120149999999999  2.5120149999999999  1.7105399999999999
