Sr Sm Sc  O 
 1.0000000000000000
     6.7357328071870493   -0.0148018652952974    0.0000000000000004
    -4.3621321585524182    5.1324573623513876    0.0000000000000004
    -0.0000000000000000   -0.0000000000000000    5.8517060923390307
 Sr  Sm  Sc  O  
   2   2   2   8
Cartesian
  2.3490802667140955  2.0197568160125656  2.9948116776509770
  0.0245197332859055  3.0979031839874351  0.0689566776509758
  5.5500842673783950  0.5351102397844159  2.8564288007494172
 -3.1764842673783953  4.5825497602155831  5.7822838007494166
 -1.5577904569416439  3.8317889916792476  2.8993943828288185
  3.9313904569416454  1.2858710083207536  5.8252493828288188
  2.1143834269163744  2.1286107442128870  5.4478657625828193
  5.9744973423100811  0.3382646818054117  0.5821313671521807
  0.2592165730836268  2.9890492557871138  2.5220107625828185
 -3.6008973423100814  4.7793953181945881  3.5079863671521809
 -1.8998989738069432  2.3832443117258464  4.3131010786628607
  4.2734989738069427  2.7344156882741539  1.3872460786628598
  3.0465604837360991  0.0890440868687116  1.3872460786628598
 -0.6729604837360975  5.0286159131312873  4.3131010786628607
