Li Ti Se 
 1.0000000000000000
     3.6338471975137674   -0.0000000002719718    0.0000000000000002
    -1.8169235676848372    3.1470040044572656    0.0000000000000002
    -0.0000000000000000   -0.0000000000000000    6.4701449414357981
 Li  Ti  Se 
   1   1   2
Cartesian
  0.0000000000000000  0.0000000000000000  3.2350699999999999
  0.0000000000000000  0.0000000000000000  0.0000000000000000
  0.0000033333333462  2.0979999999999923  1.5541224399858831
  1.8169266666666537  1.0490000000000075  4.9160175600141161
