Li Cr  O 
 1.0000000000000000
     5.0506204104119332   -0.0070113055848129    0.0000000000000003
    -3.5612754435295955    3.5813590861275975    0.0000000000000003
    -0.0000000000000000   -0.0000000000000000    2.9270923017446906
 Li  Cr  O  
   2   1   3
Cartesian
  2.0704933343015113  1.2347365510970267  1.4635450000000001
 -0.5811533343015112  2.3396134489029730  1.4635450000000001
  0.0000000000000000  0.0000000000000000  0.0000000000000000
 -2.3930892711753029  3.0946032371958943  1.4635450000000001
  3.8824292711753028  0.4797467628041058  1.4635450000000001
  0.7446700000000002  1.7871750000000000  0.0000000000000000
