Ti  V Cu  O 
 1.0000000000000000
     6.7087732381955298   -0.0300574542135586   -0.0484530864437629
    -0.7443055227482658    6.6674245307319335    0.0484530872743740
    -1.4415908693309609    1.2954418017540563    5.4893909170809128
 Ti  V   Cu  O  
   1   4   1  12
Cartesian
  5.1073546788262947  6.4084744666348294  1.3723474999912537
 -0.2094433025829189  5.0701242577312797  4.1458891650660297
  1.6528293816052799  5.5942059479560733  1.4831766689291932
  2.9012136870262601  2.2748284917301969  4.0881958349392802
  4.6655906892383925  2.8868811200817341  1.2615183310727349
 -0.5135016293358122  1.6033167670036370  4.1170425000009416
  4.1778111043977759  1.3284171440558945  4.8313806513703499
  3.3309758934479867  2.7862825372994249  2.4179295375553367
  3.1970199089262334  6.3843256680827967  1.5404528331597456
  2.6631627481934461  3.7143642313304523  5.1453750602695392
  1.6949268081496680  4.2564676006620177  0.3267654624568027
  0.3821821946259640  6.6394960642847716  0.9878210522954608
  1.2472572503571973  4.9867240614595643  3.0887099397212427
  5.2867758937721296  4.5064310544523485  1.2042421668476999
 -0.9008845838800982  3.5554005683294507  4.1951153029535613
 -1.2864187843349648  6.2386785405009126  3.4027043486239008
  1.4687349569754087  1.4260152093959364  4.0389696970503808
  5.8402490690516942  1.7347729063686042  1.7568739476965434
