Sr Ca Si 
 1.0000000000000000
     6.5329253996451664   -0.0023256093580053    0.0371039765112015
     0.0368813683208556    6.5328220144298674    0.0371039762925400
    -0.0023396107363207   -0.0023256117018630    6.5330306258699116
 Sr  Ca  Si 
   3   1   8
Cartesian
  1.6602147868143349  4.8997142923700565  0.0371000000000714
  0.0074609082964468  1.6307757076300580  4.9097252006661760
  4.8997943048892187 -0.0023300000001131  1.6604047993337545
  3.2837350000000001  3.2640800000000003  3.3036150000000002
  1.3479511481653386  1.3398829027626820  1.3561117545557917
  3.5847550701590829  0.3424806281538176  4.5822030121623518
  4.5799273434724679  3.5826286925168827  0.3916470034657631
  0.3698485219986655  4.5583376494324099  3.6123496676325972
  5.2195188518346614  5.1882770972373171  5.2511182454442062
  2.0069880567222480  6.1856793718453833  2.9948803323671620
  6.2034770903886995  2.9455313074835483  2.0250269878375597
  2.9574139172588372  1.9698223505679562  6.2155829965345681
