Bi  O  F 
 1.0000000000000000
     3.7809679141806556    0.0000000000000000   -0.0000000000000000
     0.0000000000000000    3.7809679141806556    0.0000000000000000
    -0.0000000000000000    0.0000000000000000    6.1945387785004744
 Bi  O   F  
   2   2   2
Cartesian
  1.8904850000000000  0.0000000000000000  4.8860975603067924
  0.0000000000000000  1.8904850000000000  1.3084424396932084
  1.8904850000000000  1.8904850000000000  0.0000000000000000
  0.0000000000000000  0.0000000000000000  0.0000000000000000
  0.0000000000000000  1.8904850000000000  4.0033034494893895
  1.8904850000000000  0.0000000000000000  2.1912365505106113
