Rb  P  H  O 
 1.0000000000000000
     0.0000000000000000    4.8770202049341149   -0.0151381922815339
     6.0050740040798773    0.0000000000000000    0.0000000000000000
     0.0000000000000000   -2.3150284701080572   -7.0928380985917636
 Rb  P   H   O  
   2   2   4   8
Cartesian
  4.5038024999999999  0.5155557369920095 -1.7871980624588037
  1.5012675000000000  2.0464342630079924 -5.3207819375411951
  1.5012675000000000  2.9078446838561689 -1.7866530707727675
  4.5038024999999999 -0.3458546838561696 -5.3213269292272365
  1.5012675000000000  0.0602384650208031 -2.7027433485586121
  4.5038024999999999  2.5017515349791957 -4.4052366514413919
  0.0000000000000000  2.4385100000000000 -0.0075700000000000
  3.0025350000000000  2.4385100000000000 -0.0075700000000000
  1.5012675000000000 -0.9305959857202193 -2.9613279185270405
  4.5038024999999999 -1.3844340142797806 -4.1315120814729616
  1.5012675000000000  1.5282391004289437 -2.4067936478360443
  4.5038024999999999  1.0337508995710583 -4.7011863521639583
  0.2309302972173618  3.1865441176209108 -0.9288628438633171
  3.2334652972173599 -0.6245541176209112 -6.1791171561366820
  5.7741397027826400 -0.6245541176209112 -6.1791171561366820
  2.7716047027826400  3.1865441176209108 -0.9288628438633171
