Ho Al Ir 
 1.0000000000000000
     7.5284671787627566   -0.0044744928014634    0.0000000000000005
    -3.7108093907736026    6.5503993579124895    0.0000000000000005
    -0.0000000000000000   -0.0000000000000000    9.4791186920837109
 Ho  Al  Ir 
   4  18   6
Cartesian
  5.0040347086701802  4.3939295245165804  2.3697800000000000
 -1.1863747086701817  2.1520004754834212  7.1093399999999995
  1.3604534839513420  6.5189056139522705  2.3697800000000000
  2.4572065160486609  0.0270243860477281  7.1093399999999995
  0.9460868361678192  4.3264754999422328  7.1093399999999995
  2.8715731638321826  2.2194545000577657  2.3697800000000000
  3.2998231229514401  2.9537509682863483  7.1093399999999995
  0.5178368770485592  3.5921790317136519  2.3697800000000000
  1.2723209169354535  2.1815781551513993  8.9569308982622609
  2.5453390830645475  4.3643518448486018  0.5221891017377384
  2.5453390830645475  4.3643518448486018  4.2173708982622609
  1.2723209169354535  2.1815781551513993  5.2617491017377391
  2.5203130743530693  0.0047746007789157  0.7081233731033649
  1.2973469256469299  6.5411553992210836  5.4476833731033647
 -1.2368132427963767  2.1959714196581843  4.0314366268966344
  2.5203130743530693  0.0047746007789157  4.0314366268966344
  5.0544732427963774  4.3499585803418137  5.4476833731033647
  5.0544732427963774  4.3499585803418137  8.7709966268966362
 -1.2368132427963767  2.1959714196581843  0.7081233731033649
  3.3252947617150683  5.7016986163130072  7.1093399999999995
  0.4923652382849326  0.8442313836869937  2.3697800000000000
  1.2973469256469299  6.5411553992210836  8.7709966268966362
  0.0000000000000000  0.0000000000000000  0.0000000000000000
  3.8408430688929256  2.1461940231318937  0.0000000000000000
 -0.0231830688929249  4.3997359768681061  0.0000000000000000
 -0.0231830688929249  4.3997359768681061  4.7395600000000000
  3.8408430688929256  2.1461940231318937  4.7395600000000000
  0.0000000000000000  0.0000000000000000  4.7395600000000000
