Hf Tl Au 
 1.0000000000000000
   -10.1028608177969659    0.0015845238555163   -5.8341804665166004
    -3.5531912518881379   -0.3494183722010928   -5.5125982499860715
    -4.3866490542699736   -2.7079703817694409   -4.0680447915227367
 Hf  Tl  Au 
   1   1   2
Cartesian
  0.0000000000000000  0.0000000000000000  0.0000000000000000
 -5.0514299999999999  0.0007900000000000 -2.9170900000000000
 -7.7808683195955162  0.0011337679020857 -4.4932129022603950
 -2.3219916804044800  0.0004462320979143 -1.3409670977396022
