 K Ta  O 
 1.0000000000000000
     7.4674305638178877    0.0047137793309581   10.4051733709040661
     3.3507395190439651    6.6734613695214557   10.4051733404942564
     0.0076360381249701    0.0047138605358293   12.8074233918882339
 K   Ta  O  
   2  15  32
Cartesian
  9.3101069628513891  5.7472214660981740 28.9109952466805709
  1.5157030371486111  0.9356585339018254  4.7067647533194306
  3.9282721193426071  2.4249613821887137 12.1985984718696105
  5.4129050000000003  3.3414400000000004 16.8088800000000020
  8.2665217880780713  1.9956794939775429 18.7135101563220090
  6.4627795774672228  6.4955576638828738 18.3998305145343828
  2.5592882119219302  4.6872005060224575 14.9042498436779951
  7.1564037016559849  3.8164122403666711 13.5969611880103312
  3.6694062983440139  2.8664677596333288 20.0207988119896712
  6.3780413019021065  1.2385229070106121 22.0615741165355175
  4.5553876748152771  6.3233203122845705 21.6377081444132955
  9.6534636850054394  5.1466500233512393 20.2299033286338350
  4.4477686980978941  5.4443570929893870 11.5561858834644866
  6.2704223251847235  0.3595596877154312 11.9800518555867086
  1.1723463149945614  1.5362299766487615 13.3878566713661691
  4.3630304225327761  0.1873223361171260 15.2179294854656142
  6.8975378806573966  4.2579186178112876 21.4191615281303953
  5.3334289889164364  3.8195699902164204 12.7181024552612243
  3.1761939890519142  5.7373671651229738 13.2147109841902122
  7.4288580080381594  2.0165599126064802 12.5849011375301298
  2.3902153976314584  0.2681805120801219 14.5550385151904091
  5.4923810110835660  2.8633100097835786 20.8996575447387798
  6.0263452972825515  5.6320110480027390 20.1773158132745181
  8.1182171815912056  3.6267591293004946 19.9023024078597821
  6.5521775267418043  2.1346856439441728 17.9154367962068406
  7.6515359828668679  2.8654486549115026 22.5869533187998890
  4.2088753347544676  3.6324138670235064 18.3723082413734033
  6.5200692973737588  4.9007087780258756 17.3759177523240922
  4.2736324732582016  4.5481943560558280 15.7023232037931670
  6.6169346652455321  3.0504661329764930 15.2454517586266007
  4.3057407026262426  1.7821712219741239 16.2418422476759083
  1.2282865870936184  0.2017603996436804  7.5709860331736376
  1.7132617385453426  2.9673601549808652  6.8650366060383501
  3.8244768793930395  1.0076139827638455  6.5747480557027638
  9.5975234129063800  6.4811196003563216 26.0467739668263647
  9.1125482614546591  3.7155198450191373 26.7527233939616593
  7.0013331206069616  5.6752660172361544 27.0430119442972376
  2.8450108269209586  1.7562534309223552  8.8347099364232538
  7.9807991730790455  4.9266265690776452 24.7830500635767592
  7.6496160109480895  0.9455128348770278 20.4030490158097884
  3.3969519919618394  4.6663200873935216 21.0328588624698725
  8.4355946023685426  6.4146994879198802 19.0627214848095932
  2.5103358295722438  1.1268839308211203 11.7794672647728742
  5.1420950513056152  1.7391171535178092 10.8102650115884131
  3.1742740171331327  3.8174313450884991 11.0308066812001133
  8.3154741704277573  5.5559960691788799 21.8382927352271352
  5.6837149486943863  4.9437628464821914 22.8074949884115874
  2.7075928184087994  3.0561208706995089 13.7154575921402273
  4.7994647027174464  1.0508689519972605 13.4404441867254789
