 V Cl  O 
 1.0000000000000000
     4.8910520907331883    0.0000000000000000    0.0000000000000000
    -0.0000000000000000    9.1166605117748798    0.0000000000000000
     0.0000000000000000    0.0000000000000000   11.2101349935441821
 V   Cl  O  
   4  12   4
Cartesian
  0.6662730254034549  2.2791649999999999  0.5204748317719020
  4.2247818656465368  6.8374949999999997 10.6896551682280982
  1.7792470835465581  6.8374949999999997  6.1255398317719010
  3.1118029164534384  2.2791649999999999  5.0845901682280985
  3.5528145615846451  5.0556920408222821  9.7017739372460170
  1.3382305473653646  4.0609770758376902  1.5083560627539865
  1.1072895615846476  5.0556920408222821  7.1134098526240095
  3.5528145615846451  8.6192979591777181  9.7017739372460170
  1.1072895615846476  8.6192979591777181  7.1134098526240095
  3.7837604384153547  0.4973620408222875  4.0967089372460181
  3.7837604384153547  4.0609770758376902  4.0967089372460181
  1.2477152555827333  2.2791649999999999  9.6639247058356244
  3.6433298533672454  6.8374949999999997  1.5462165042944174
  3.6932451466327545  2.2791649999999999  7.1512815042944267
  1.1978097444172666  6.8374949999999997  4.0588484957055835
  1.3382305473653646  0.4973620408222875  1.5083560627539865
  3.9572787866745518  2.2791649999999999  0.5746578130345501
  1.5117586777245773  2.2791649999999999  5.0304071869654488
  0.9337614312254361  6.8374949999999997 10.6354833970954150
  3.3792913222754253  6.8374949999999997  6.1797228130345552
