Sb  P  O 
 1.0000000000000000
     6.7634579902901795   -0.0179864935211842   -1.4873774376821853
    -3.5955933155144928    5.7285592599385957   -1.4873774389084089
     0.0854671749891625    0.1540688183182861    9.0421496613661283
 Sb  P   O  
   4   4  20
Cartesian
  3.6756158762175608  3.5724537937667327  0.0456158649149894
  0.3357895027543830  3.6587027397367295  5.3099244825081193
  5.4733029356103495  0.7079914246479216  0.7888494825080625
  3.7176170843116174  3.6498958554055312  4.5666908649150448
  0.1482824487468607  0.2673950564329804  5.0916127004432807
  4.1196082355525450  1.3212356349774228  7.0160952303555719
  1.4871912013033226  2.6807934976354604  2.4950202303557369
 -0.9001995855022886  4.4822379190909771 -0.9168422995565563
 -0.1024921052939071  5.6713768317000151  5.2312441986468325
  3.0501499531956844  5.2494161689495265  3.4508335060160951
 -2.0544851489840634  4.9956309664648861  7.2472851202352953
  3.0735003647126291  2.0285836116684099 -1.1474034386717631
  5.3645052621116722  0.9711713929242276 -1.2331152099152869
  5.5816221328323321  0.4447750438715267  2.8108183004473619
  0.7742710598650697  1.6461279147763817  5.3886923602265444
 -2.4861785469572242  5.1343656443691978  2.7262101202338420
 -1.3774852542031164  3.8708956595014636  0.4171385060148547
  0.6166633010348607  3.7057174615698987  3.2879597900861661
  2.6111115219898320  4.7058122044341726 -1.0761859407788290
 -1.5207970281549814  3.3647245136050867  4.9322690592215013
 -0.0618634440201566  5.7431737110408330 -0.6197626397724818
  0.6493976873073682  1.4195813222519100  2.1975491986455906
  4.3852390117173323  2.0503445735480139  5.6823550345473457
  0.0551381000002235  3.6112628057695249  7.3318933004456381
  2.1922705137173470  3.9530155456466991  5.6880228258662235
  1.9651487897321607  3.2921168629124371  1.1612800345483181
  4.7402440638621623  2.4388182364757820  1.1669478258658939
  2.7265413318805178  2.3217963735664084  3.3736715613265189
