Pr Mg Cd 
 1.0000000000000000
     0.0000000000000000    3.6711249681554703    3.6711249681554703
     3.6711249681554703   -0.0000000000000000    3.6711249681554703
     3.6711249681554703    3.6711249681554703    0.0000000000000000
 Pr  Mg  Cd 
   1   1   2
Cartesian
  5.5066800000000002  5.5066800000000002  5.5066800000000002
  1.8355673422399816  1.8355673422399816  1.8355673422399816
  0.0000000000000000  0.0000000000000000  0.0000000000000000
  3.6711200000000002  3.6711200000000002  3.6711200000000002
