Pr Er  S 
 1.0000000000000000
     3.9591023478962453    0.0000000000000000    0.0000000000000002
    -0.0000000000000006   10.4171104915686978    3.5592418610963428
    -0.0000000000000000    0.0150483940360989   11.2956855085236114
 Pr  Er  S  
   2   6  12
Cartesian
  2.9693250000000000  5.7437661099011033 11.0375791585317753
  0.9897750000000000  4.6883938900988928  3.8173508414682233
  2.9693250000000000  1.8840792347981532 11.9189512274287921
  0.9897750000000000  8.5480807652018473  2.9359787725712101
  2.9693250000000000  9.8310214214189315 10.8882918176911332
  0.9897750000000000  0.6011385785810655  3.9666381823088654
  2.9693250000000000  6.8956382247792014  7.0152175821200693
  0.9897750000000000  3.5365217752207911  7.8397124178799267
  0.9897750000000000  8.0005333427544301 11.4399100981638515
  2.9693250000000000  2.4316266572455700  3.4150199018361507
  0.9897750000000000  6.0784314961700980  8.7694629309870269
  2.9693250000000000  4.3537285038298998  6.0854670690129735
  0.9897750000000000  1.1215268212017038  6.6726259106278265
  0.9897750000000000  0.2144108576850208  1.3438056190978873
  0.9897750000000000  7.2809816002111987  5.3210866058743820
  2.9693250000000000  3.1511783997887997  9.5338433941256238
  2.9693250000000000  6.4612060145954056  2.6141644302962952
  2.9693250000000000 10.2177491423149753 13.5111243809021122
  2.9693250000000000  9.3106331787982946  8.1823040893721757
  0.9897750000000000  3.9709539854045928 12.2407655697037061
