Lu Ta  O 
 1.0000000000000000
     3.4632428322629236    0.0000000000000000    0.0000000000000000
     0.0000000000000000    3.4632428322629236    0.0000000000000000
     0.0000000000000000   -0.0000000000000000    9.7044732816212171
 Lu  Ta  O  
   2   2   5
Cartesian
  1.7316199999999999  1.7316199999999999  7.1291271113624193
  1.7316199999999999  1.7316199999999999  2.5753428886375827
  0.0000000000000000  0.0000000000000000  0.0000000000000000
  0.0000000000000000  0.0000000000000000  4.8522350000000003
  1.7316199999999999  0.0000000000000000  8.4962340736462760
  1.7316199999999999  0.0000000000000000  1.2082359263537248
  1.7316199999999999  1.7316199999999999  4.8522350000000003
  0.0000000000000000  1.7316199999999999  8.4962340736462760
  0.0000000000000000  1.7316199999999999  1.2082359263537248
