Zr Be Te 
 1.0000000000000000
     0.0000000000000000    4.4333322904855264    4.4333322904855264
     4.4333322904855264    0.0000000000000000    4.4333322904855264
     4.4333322904855264    4.4333322904855264   -0.0000000000000000
 Zr  Be  Te 
   1   1   4
Cartesian
  2.2166649999999999  2.2166649999999999  2.2166649999999999
  0.0000000000000000  0.0000000000000000  0.0000000000000000
  5.5398705319776997  3.3267850346922807  3.3267850346922807
  5.5398705319776997  5.5398705319776997  5.5398705319776997
  3.3267850346922807  5.5398705319776997  3.3267850346922803
  3.3267850346922803  3.3267850346922803  5.5398705319776997
