Sr Tl In 
 1.0000000000000000
   -11.4471228272063179    0.0000000000002334   -6.6089995854632688
   -12.0833842024658402    0.0230442982493221    7.7110369722028507
    -7.8543656848390198   11.9845154039632913    0.3861617462490250
 Sr  Tl  In 
   2   1   1
Cartesian
 -8.5979788657015224 -0.0000000000000012 -4.9640470549292175
 -2.8491411342984798  0.0000000000000012 -1.6449529450707832
 -5.7235600000000000  0.0000000000000000 -3.3045000000000000
  0.0000000000000000  0.0000000000000000  0.0000000000000000
