Li Mn Co  O 
 1.0000000000000000
     6.2942607730929669    0.1452567386375432   -1.4271012059933439
     1.4072111157304081    5.6030629259312992    0.0041930592199037
     0.0106928969555700   -0.0870126981272959    5.6343387791246524
 Li  Mn  Co  O  
   4   3   3  12
Cartesian
  1.4904803002340015  5.4685125412121582  2.6926282894647100
  4.6670511708110416  1.9500096300106387 -0.0109490228447238
  4.6723663491443812  1.9065365274743358  2.8062254758251313
  2.9672236385300526  3.8023361933244577  4.3511616212764306
  0.7283484729832549  2.8150389806568121  0.0124613123850206
  2.3114630807877448  0.9397508412973187  1.3927748042723214
  5.3759864890441236  4.7080485577905833  2.8083357300932277
  0.7327896972640668  2.7659850323351756  2.8132710705850537
  2.3177140205774496  0.9017959042517238  4.2263071432043793
  5.3706418667370333  4.7515537156067946 -0.0088363049961324
  5.1272958925755168  3.3681304316279745  4.2031307506538003
  3.5052689616662818  5.2299248712624111  2.8160445791080781
  5.1886665906491061  3.4271537859930770  1.3937938317753267
  3.5407847985907486  5.2995702685508190 -0.0146286754356356
  4.1560963346078426  0.3858850251183311  4.2186837814341667
  0.4665317536137081  1.4856764735764634  1.4133647350319432
  4.2174686600013436  0.4449080579707886  1.4093489624214977
  2.5732809008610165  2.2691149724487980 -0.0081276182110455
  0.4734061812576246  1.4755426935154952  4.2032172217487345
  7.2004972255467470  4.2035370025758461 -0.0030448932614443
  2.5770977788705571  2.1922388971729889  2.8363628651604951
  0.9524448965764043  4.0409128866236781  4.2277250209219108
