Er Al Si 
 1.0000000000000000
     4.0319642463019818    0.0000000000000000    0.0000000000000000
    -2.0159821231509909    4.9763916129431358   -0.9369280561855158
     0.0000000000000000    0.0023410381415899    6.6066010853743764
 Er  Al  Si 
   2   3   2
Cartesian
  0.0000000000000002  3.7920301872981375  3.7681683471597447
  2.0159799999999999  1.1866998127018626  1.9015016528402553
  2.0159820159799797  1.9439699276269233  5.3586994805375223
  0.0000000000000000  0.0000000000000000  0.0000000000000000
 -0.0000020159799805  3.0347600723730777  0.3109705194624769
  2.0159799999999994  4.0375889586261486  1.6299913660381438
  0.0000000000000000  0.9411410413738527  4.0396786339618576
