Au Cl 
 1.0000000000000000
     6.4437643319970519    0.1307231824773388    2.0717435577464127
     0.5813889394399498    6.6740618475406102    0.3206432964162156
     0.0359781071698347    0.1183727956854571    7.1078961504235751
 Au  Cl 
   4   8
Cartesian
  5.0595945663933275  3.5997545494489569  5.0216188810422020
  2.0015354336066706  3.3233954505510490  4.4786611189578025
  4.2504614703970889  1.6567026630165953  2.0260456379721870
  2.8106685296029079  5.2664473369834015  7.4742343620278113
  5.6259200989820588  1.6107140589920819  3.9598558290884323
  1.4352099010179420  5.3124359410079238  5.5404241709115638
  2.3298486040034225  1.2981654825166964  3.4130324992258179
  4.7312813959965716  5.6249845174833020  6.0872475007741809
  2.9337153610350306  1.8853341705496611  7.2616024309941176
  4.1274146389649742  5.0378158294503370  2.2386775690058855
  6.1573509810707350  2.1377463135828023  7.8181080852689364
  0.9037790189292663  4.7854036864171974  1.6821719147310661
