Mg Se 
 1.0000000000000000
     6.4904865758644901   -0.0000000000000000    0.0000000000000000
     0.0000000000000000    6.4904865758644901    0.0000000000000000
     0.0000000000000000   -0.0000000000000000    6.4904865758644901
 Mg  Se 
   4   8
Cartesian
  0.0000000000000000  0.0000000000000000  0.0000000000000000
  3.2452450000000002  0.0000000000000000  3.2452450000000002
  0.0000000000000000  3.2452450000000002  3.2452450000000002
  3.2452450000000002  3.2452450000000002  0.0000000000000000
  3.9450587104624106  3.9450587104624106  2.5454312895375901
  5.7906762895375898  2.5454312895375901  5.7906762895375898
  2.5454312895375901  0.6998137104624103  0.6998137104624103
  0.6998137104624103  5.7906762895375898  3.9450587104624106
  2.5454312895375901  2.5454312895375901  3.9450587104624106
  0.6998137104624103  3.9450587104624106  0.6998137104624103
  3.9450587104624106  5.7906762895375898  5.7906762895375898
  5.7906762895375898  0.6998137104624103  2.5454312895375901
