Pr In 
 1.0000000000000000
     6.6167282385337947   -0.0038547555676584    0.0000000000000004
    -1.3450973400223549    6.4785662447501302    0.0000000000000004
    -0.0000000000000000   -0.0000000000000000   10.5660553848886885
 Pr  In 
   6  10
Cartesian
  3.3093729148771844  4.0646371235108703  2.6415150000000001
  1.9622570851228145  2.4100828764891298  7.9245450000000002
  0.2792479117646767  5.1560467371092349  5.2830300000000001
  0.2792479117646767  5.1560467371092349  0.0000000000000000
  4.9923820882353223  1.3186732628907643  5.2830300000000001
  4.9923820882353223  1.3186732628907643  0.0000000000000000
  0.0561031489282422  0.0689069946920911  2.6415150000000001
  5.2155268510717576  6.4058130053079099  7.9245450000000002
  1.6195140455507575  1.9891191113580433  0.5137507420668896
  3.6521159544492430  4.4856008886419572 10.0523092579331088
  1.6195140455507575  1.9891191113580433  4.7692792579331114
  3.6521159544492430  4.4856008886419572  5.7967807420668915
  3.2079934064100897  0.4842647102364240  2.6415150000000001
  5.4477380255114021  3.2351632520892588  7.9245450000000002
  2.0636365935899117  5.9904552897635766  7.9245450000000002
 -0.1761080255114027  3.2395567479107430  2.6415150000000001
