Sc Al Co 
 1.0000000000000000
     4.3090352177132356    0.0137624730915150    2.1186924279800992
     1.3249906350875831    4.1002894690605380    2.1186924279800992
     0.0188471430420264    0.0137624724241406    4.8016963718426595
 Sc  Al  Co 
   2   1   3
Cartesian
  3.5395355929097483  2.5846171183129285  5.6597956063382178
  2.1133444070902505  1.5431928816870706  3.3792843936617807
  0.0000000000000000  0.0000000000000000  0.0000000000000000
  0.6624949999999999  2.0501450000000001  1.0593450000000000
  2.1545200000000002  0.0068800000000000  1.0593450000000000
  0.0094250000000000  0.0068800000000000  2.4008500000000002
