 Y Ag Sn 
 1.0000000000000000
     2.3588205651249665   -4.0855974502816190    0.0000000000000000
     2.3588205651249665    4.0855974502816190   -0.0000000000000000
    -0.0000000000000000    0.0000000000000000    7.4133836362218712
 Y   Ag  Sn 
   2   2   2
Cartesian
  0.0000000000000000  0.0000000000000000  7.4068853110823882
  0.0000000000000000  0.0000000000000000  3.7001953110823895
  2.3588200000000001  1.3618693903999737  2.3072946657909501
  2.3588200000000001 -1.3618693903999739  6.0139846657909493
  2.3588200000000001  1.3618693903999737  5.3275680431266865
  2.3588200000000001 -1.3618693903999739  1.6208780431266867
