 Y Fe Cu  O 
 1.0000000000000000
     5.8993215146346349   -0.0000371981526057   -2.0858001641165003
    -2.9496488490643404    5.1088762408754862   -2.0856687459184102
    -0.0000618403147525    0.0000518963701201    6.2572235524639250
 Y   Fe  Cu  O  
   1   4   3  12
Cartesian
 -0.0000015547558161  0.0000018732692372  0.0000027848905998
  2.9496593834695601 -0.0000206830543557 -1.0428978431883498
 -0.0000290921392629  0.0000259563174044  3.1286119218285586
 -1.4748237403834914  2.5544401957592355 -1.0428351709704631
  1.4748062165009761  2.5544442569064869  1.0428757033276874
 -0.0000191772158012  5.1088813690652977  0.0000440844267146
  1.4748395744127327  2.5544215376951587 -2.0857353840451052
 -1.4748556776414872  2.5544667243409287  2.0857739367657921
  2.5878194154458600  2.6704241274563825  2.5973475920345450
  0.1612745048978406  1.5326282300854090  1.9912111228222718
  0.6567876371367681  4.2028986790408505  1.5741062313619556
  1.5416948506980810  4.4822627373329373 -2.1802960062578918
 -1.7030130451034611  4.2029042163411177 -0.0945795572771917
 -1.0185847942834743  3.5762463925357624  3.6598750267956022
  0.3617952638503109  2.4384689737410814 -0.5115997997641895
  2.7883336281149624  3.5762619649775056  0.0945390641551943
  4.6526248760603410  0.9059798296080822  2.1803396208727421
  3.9681912298509738  1.5326439766967463 -1.5741245501412866
  2.2928200139832957  0.9059845131356501  0.5116512326299306
  1.4079193358310931  0.6266300200290611  4.2660450184829681
