Li  V  O  F 
 1.0000000000000000
     8.5726816471283627    0.0000000201013021    0.0000000000000005
    -4.2863411798389786    7.4241598792744297    0.0000000000000005
    -0.0000000000000000   -0.0000000000000000    4.5081310254770424
 Li  V   O   F  
   3   6   3  15
Cartesian
  0.0000000000000304  4.9494399999999823  2.2601965132415374
  0.0000000000000000  0.0000000000000000  4.4368666934859080
  4.2863399999999690  2.4747200000000174  2.1291934419187113
  2.9014383967580519  5.1453383435963342  2.3453958565260615
 -1.6203721098284878  7.3642106413181665  2.3453958565260615
  1.4051567420545985  7.3771996857069198  4.4570742382036919
 -1.2810662869295653  2.3387710150855026  2.3453958565260615
 -2.8050795532117143  4.9524618119661650  4.4570742382036919
  1.3999228111571109  2.5186585023269115  4.4570742382036919
 -2.7163698428882448  6.4534825972353955  3.4345602560530573
  0.0556460592407045  1.8449729863208220  3.4345602560530573
  2.6607237836475397  6.5498644164437803  3.4345602560530577
  2.8121864440593809  3.4256845663362010  1.1631766969548121
  5.6989283018069079  1.6243198841756361  3.3211446913286715
  4.3130933925578141  5.7738296234851756  1.0826444178911869
  4.3165138197133395  4.1232576334156485  3.3211446913286715
  4.1998574542344267  0.7225830576227087  1.1631766969548121
  2.8435778784797541  1.6765824824087121  3.3211446913286715
 -1.3924127997282396  4.0644731218562269  3.3568376533967932
  1.4158510761704344  0.8483343100431974  1.0826444178911869
  1.4030519350294099  5.7967798149466541  1.1889774449770487
  0.0322917052668131  3.3106912544036899  1.1889774449770487
 -0.0702058323099686  6.5977885140836952  3.3568376533967932
  5.8469761017061916  3.2758923760410901  1.1631766969548121
 -1.4353436402961599  5.7408489306496557  1.1889774449770487
  1.4626057730182447  4.1860657882200574  3.3568376533967932
  7.1300755312716610  0.8019960664716774  1.0826444178911869
