Mg Co 
 1.0000000000000000
     4.7975818631038507    0.0000000000000000    0.0000000000000000
    -2.3987909315519254    4.1548200738883025    0.0000000000000000
     0.0000000000000000    0.0000000000000000    7.8392625988049600
 Mg  Co 
   4   8
Cartesian
 -0.0000023987899941  2.7698954775960147  0.4984787106187391
 -0.0000023987899941  2.7698954775960147  3.4211512893812608
  2.3987947975800221  1.3849286772239739  4.4181008713587024
  2.3987947975800221  1.3849286772239739  7.3407812893812618
  0.0000000000000000  0.0000000000000000  0.0000000000000000
  1.2295165812810576  0.7099169767828820  1.9598150000000001
  3.5680682162989297  0.7099169767828820  1.9598150000000001
  2.3987923987899942  2.7351650010806177  1.9598150000000001
  0.0000000000000000  0.0000000000000000  3.9196300000000002
 -0.0000000000000171  1.4196591537394017  5.8794450000000005
 -1.1692758175089362  3.4449071780371074  5.8794450000000005
  1.1692806150889259  3.4449071780371074  5.8794450000000005
