Dy Pb  C 
 1.0000000000000000
     4.8936937635584545   -0.0000000000000000    0.0000000000000000
    -0.0000000000000000    4.8936937635584545   -0.0000000000000000
     0.0000000000000000   -0.0000000000000000    4.8936937635584545
 Dy  Pb  C  
   3   1   1
Cartesian
  2.4468450000000002  0.0000000000000000  2.4468450000000002
  0.0000000000000000  2.4468450000000002  2.4468450000000002
  2.4468450000000002  2.4468450000000002  0.0000000000000000
  0.0000000000000000  0.0000000000000000  0.0000000000000000
  2.4468450000000002  2.4468450000000002  2.4468450000000002
