 K  H Pd 
 1.0000000000000000
     7.3170015285483858    0.0000000000000000    0.0000000000000000
     0.0000000000000000    7.3170015285483858    0.0000000000000000
    -0.0000000000000000    0.0000000000000000    5.7857077638648651
 K   H   Pd 
   6  10   2
Cartesian
  3.6585000000000001  3.6585000000000001  0.0000000000000000
  0.0000000000000000  0.0000000000000000  0.0000000000000000
  1.3437212372990857  5.0022212372990840  2.8928550000000000
  5.9732787627009163  2.3147787627009149  2.8928550000000000
  5.0022212372990840  5.9732787627009163  2.8928550000000000
  2.3147787627009149  1.3437212372990857  2.8928550000000000
  0.8413523764257602  2.8171476235742401  1.1615002331606816
  6.4756476235742397  4.4998523764257605  1.1615002331606816
  4.4998523764257605  0.8413523764257602  1.1615002331606816
  2.8171476235742401  6.4756476235742397  1.1615002331606816
  6.4756476235742397  4.4998523764257605  4.6242097668393196
  4.4998523764257605  0.8413523764257602  4.6242097668393196
  2.8171476235742401  6.4756476235742397  4.6242097668393196
  3.6585000000000001  0.0000000000000000  0.0000000000000000
  0.0000000000000000  0.0000000000000000  2.8928550000000000
  3.6585000000000001  3.6585000000000001  2.8928550000000000
  0.8413523764257602  2.8171476235742401  4.6242097668393196
  0.0000000000000000  3.6585000000000001  0.0000000000000000
