Nb  P Se 
 1.0000000000000000
     3.4036130516692911   -0.0000000006445047   -0.8900451487667957
    -0.4503114265575597    4.5522975593437849   -1.7220327754210887
    -0.0000454638052862    0.0059247108175130    6.9527047783380800
 Nb  P   Se 
   2   2   2
Cartesian
  2.8342024960568639  1.7501085966729759  3.8853716173300517
  0.1190475039431355  2.8081114033270236  0.4552483826699479
  1.3572107095235455  3.4835926107416024 -1.7627876657901924
  1.5960892904764548  1.0687073892583969 -0.8492923342098073
  0.6286091862301488  0.9715089838983690  2.4038618092449999
  2.3246408137698511  3.5867110161016300  1.9367581907550016
