Fe Cu Ge  S 
 1.0000000000000000
     4.8506377073700380    0.0131986728914050   -4.3373734231792644
    -0.9618609741349734    4.7543331701726981   -4.3373734170186120
    -0.0107658820449736   -0.0131986796229981    6.5070253169803998
 Fe  Cu  Ge  S  
   1   2   1   4
Cartesian
  3.3921300000000003  1.1918825000000002 -1.0838549999999998
  0.4858800000000001  3.5624475000000002 -1.0838549999999998
  0.0000000000000000  0.0000000000000000  0.0000000000000000
  1.9443900000000001  2.3837650000000004 -4.3373699999999999
  0.4596929967110978  0.5893377130244384  2.1846805599476249
  2.4312490853256761  2.9548760266247003 -2.1505283947769724
  0.9917481372425765  4.1855801259491034 -5.4288795711086646
  3.8733297807206508  1.7788661344017573  1.0593074059380148
