Zn Os  N 
 1.0000000000000000
     5.7091396962899212    0.0035501635626396    0.0000000000000004
    -2.7458037329351233    4.8762993487946584    0.0000000000000004
     0.0000000000000000   -0.0000000000000000    5.3732623089599345
 Zn  Os  N  
   4   2   6
Cartesian
 -0.3170460145853987  3.9956846068964738  2.5719606661415138
  2.4569652653237077  2.3464884317911436  2.5719606661415138
  3.2803860145853996  0.8841653931035248  5.2585906661415160
  0.5063747346762933  2.5333615682088562  5.2585906661415160
 -2.3333463554798510  4.1438184985158779  5.1411619639800890
 -0.4124536445201497  0.7324815014841227  2.4545319639800898
 -0.5120506724646465  4.1553199037648474  4.5919196921029215
  2.4215805616176480  2.5960044365071151  4.5919196921029215
  3.4753906724646431  0.7245300962351532  1.9052896921029221
  0.5417594383823539  2.2838455634928829  1.9052896921029221
 -2.2777012366278697  4.0449976473790725  1.7252619178584692
 -0.4680987633721315  0.8313023526209294  4.4118919178584699
