Fe Si  P 
 1.0000000000000000
     4.9169451064474421    0.0035881524353316   -0.0015415513149812
    -1.8724573524977977   -5.2702364138605580   -0.0016786583450449
    -2.2518574947184566    0.2746505403185383   -5.6785026753539993
 Fe  Si  P  
   1   4   4
Cartesian
  4.9125256780388957 -0.0004616687805493 -0.0028737687240477
  1.1658944947876246 -0.9548876432214235 -4.4508083231881193
 -1.3449175713794734 -3.3273164546840390 -3.2329069006995588
  0.6871390497697606 -2.0773158773828251 -0.6487947535334373
  3.4291141776319667 -0.0649808839712490 -1.7189893523857211
 -2.6384212871069064 -5.0190162888531065 -3.9260416672856908
  0.0104795426169044 -2.9194007119761967 -5.0139726005038003
  2.0997594469052911 -1.7665944135791154 -2.4740214582533104
 -0.3663366926340115 -4.0517076895513986 -1.3123186411463390
