Li Mn Co  O 
 1.0000000000000000
     4.8915728027081107   -0.0204711843372190   -0.4527877700008481
    -1.6336589913497535    5.4819841431396554   -0.0862801158804289
    -0.0335635029327535   -0.0127317289150164    8.5438209943443049
 Li  Mn  Co  O  
   8   2   4  14
Cartesian
  1.7252524126508682  3.4760517127000061  0.9163306483343603
 -0.5771493942988088  4.3267619970830618  2.2343111336797650
  4.0463802150975052  2.6927169466890315 -0.4089155958795863
  1.5613140587623953  1.9098265365303972  7.1959865272197892
  1.9303650162336430  5.1313816937009866  3.1316452502738250
  1.2639243953136183  0.3784755426737700  4.7086237119755392
  3.7980898931338682  1.1307646752291052  5.7174516277125873
  2.5575976466712613  0.7807157884839850  0.9714350937192215
  0.0028994602116749  0.0246413746709186  0.0437293854115002
  0.4457213656640220  3.1197523998005061  4.6951667884366195
  3.0020475480584881  3.8912999751914978  5.6610464508672189
  0.6647587812523775  4.6823005663558703  7.0675603601441015
  0.2227833781045094  1.5529310450017502  2.3364213734962895
  2.7807438568695737  2.3229494941872080  3.2833969664751259
 -1.2199871058109266  4.0007647338159487  4.3069143199929689
  2.7018024089278532  5.3323686716564644  1.2843215392285181
  1.8753293992460462  0.7112464137917818  2.8637041020953418
 -0.0198946382562531  4.5370869647520493  0.2779911020687535
  2.3256202606801195  3.8068996197121199  7.4724934726231931
 -0.4333906150950686  1.4801876861137313  4.1831018552278554
  2.1092179604451395  2.2571859540031105  5.1402866926678072
 -0.2169105998914452  3.0332933814236269  6.4995358345614189
  0.7753940354315471  1.6706016927359091  0.4954448609521037
  3.4833106084408807  2.4793944537100483  1.5403246070119680
  3.2206983450138145  0.8201709337081908  7.5758666077389361
  0.6344554299177245  0.0626643911013004  6.7193581697629243
  1.1107836933516899  3.2115528551607455  2.8828785605885630
  1.3285573594238393  4.7511425459468377  5.2221819187632788
