Be Ge  W 
 1.0000000000000000
    -1.7217372518663772    1.7217372518663772    4.0051294047848707
     1.7217372518663772   -1.7217372518663772    4.0051294047848707
     1.7217372518663772    1.7217372518663772   -4.0051294047848707
 Be  Ge  W  
   2   1   1
Cartesian
  0.0000000000000000  0.0000000000000000  0.0000000000000000
  1.7217400000000000  0.0000000000000000  2.0025650000000002
  0.0000000000000000  0.0000000000000000  4.0051300000000003
  0.0000000000000001  1.7217400000000000  2.0025650000000002
