 K Ti  I  O 
 1.0000000000000000
    10.3617276370224332   -0.0635158698037868   -1.5383417867326188
    -7.7143739189705682    6.9179382086610506   -1.5383417441561056
     0.0245314763761802    0.0635158531890390   10.4752705590486919
 K   Ti  I   O  
   4   4  12   1
Cartesian
  3.9814291170647649  4.0148259596806115  2.0576641432558107
 -1.3095391170647728  2.9031140403193914  5.3409258567441906
 -1.9974777831777004  5.6487644250012341  0.5532559826278992
  4.6693677831777061  1.2691755749987632  6.8453340173721005
  1.2686406301769555  0.2027211810498271  1.5432345350595302
  1.4032493698230490  6.7152188189501718  5.8553554649404704
  8.9555385392784892  0.9393297188163331 -0.5140997744098963
 -6.2836485392784898  5.9786102811836672  7.9126897744099010
  3.3824487794319733  0.8871465801331905 -0.2438754086487098
  0.5257655885030074  2.9304519118650143  1.8502671853091008
  0.8158905276450193  0.5432821886869993  7.0942900397594348
  4.7127007393840277  4.3313454981211450 -1.7898426337172515
 -0.7105587794319719  6.0307934198668107  7.6424654086487092
  3.1800414874369536  0.4413508533949116  3.7195562702545208
  1.8559994723549831  6.3746578113130008  0.3042999602405601
 -0.5081514874369569  6.4765891466050896  3.6790337297454809
 -2.0408107393840274  2.5865945018788548  9.1884326337172499
  6.9907523375019966  2.4008174890819229  1.0512744866647155
 -4.3188623375019937  4.5171225109180773  6.3473155133352810
  2.1461244114969937  3.9874880881349846  5.5483228146908949
  0.0000000000000000  0.0000000000000000  0.0000000000000000
