Yb Si 
 1.0000000000000000
    -3.6168643638377804    3.6168643638377804    5.5886443397065273
     3.6168643638377804   -3.6168643638377804    5.5886443397065273
     3.6168643638377804    3.6168643638377804   -5.5886443397065273
 Yb  Si 
   4  12
Cartesian
 -0.0000000000000001  0.0000000000000001  9.2468407892804674
 -0.0000000000000000  0.0000000000000000  1.9304392107195323
 -0.0000000000000002  3.6168600000000000  2.7943199999999999
  3.6168600000000000  0.0000000000000000  2.7943199999999999
  2.2735746846035281  2.2735746846035281 -1.2176993352921885
  1.3432853153964719  1.3432853153964719  4.3709406647078879
 -1.3432853153964965  1.3432853153964965  4.3709406647078497
  1.3432853153964963 -1.3432853153964963  4.3709406647078497
 -1.3432853153964983  1.3432853153964983  6.8063393352921482
  1.3432853153964983 -1.3432853153964983  6.8063393352921482
  2.2735746846035281  2.2735746846035281  1.2176993352921077
  1.3432853153964719  1.3432853153964721  6.8063393352921899
 -0.0000000000000001  2.4174197484964974 -0.0000000000000000
 -0.0000000000000001  4.8163002515035025  0.0000000000000001
  2.4174197484964974 -0.0000000000000001 -0.0000000000000000
  4.8163002515035025 -0.0000000000000001  0.0000000000000001
