Ce Tl Cd 
 1.0000000000000000
     5.1349190801696123    0.0000000000000000    0.0000000000000000
    -2.5674595400848061    4.4465245192961520    0.0000000000000000
     0.0000000000000000    0.0000000000000000    6.8510077605963238
 Ce  Tl  Cd 
   2   2   2
Cartesian
  0.0000000000000000  0.0000000000000000  3.4255049999999998
  0.0000000000000000  0.0000000000000000  0.0000000000000000
  0.0000025674599932  2.9642271120437149  5.1382574999999999
  2.5674574325400075  1.4822928879562862  1.7127524999999999
 -0.0000000000000000  2.9642713695633902  1.7127524999999999
  2.5674600000000019  1.4822486304366096  5.1382574999999999
