Cr Te Au 
 1.0000000000000000
     0.0000000000000000    5.5262714598410945    0.0134520741204176
     4.0635329012588794    0.0000000000000000    0.0000000000000000
     0.0000000000000000   -0.0618563834372681   -7.4444974000768243
 Cr  Te  Au 
   1   4   1
Cartesian
  2.0317650000000000 -0.0309300000000000 -3.7222499999999998
  2.0317650000000000  1.2223990189345797 -6.1505706948161185
  0.0000000000000000  1.5940564346173400 -2.8047206142656051
  2.0317650000000000  4.2420109810654187 -1.2804793051838841
  0.0000000000000000  3.8703535653826586 -4.6263293857343948
  0.0000000000000000  0.0000000000000000  0.0000000000000000
