Sr  Y Tl Co  O 
 1.0000000000000000
     3.7727805644390995   -0.0000000000000000   -0.0000000000000000
    -0.0000000000000000    3.7727805644390995   -0.0000000000000000
    -0.0000000000000000    0.0000000000000000   12.1907336614195998
 Sr  Y   Tl  Co  O  
   2   1   1   2   7
Cartesian
  1.8863900000000000  1.8863900000000000  9.6853389791207789
  1.8863900000000000  1.8863900000000000  2.5053910208792209
  1.8863900000000000  1.8863900000000000  6.0953650000000001
  0.0000000000000000  0.0000000000000000  0.0000000000000000
  0.0000000000000000  0.0000000000000000  7.7812725954115285
  0.0000000000000000  0.0000000000000000  4.4094574045884753
  1.8863900000000000  0.0000000000000000  7.5445775054142912
  0.0000000000000000  1.8863900000000000  7.5445775054142912
  1.8863900000000000  0.0000000000000000  4.6461524945857091
  0.0000000000000000  1.8863900000000000  4.6461524945857091
  0.0000000000000000  0.0000000000000000  9.8197655280928746
  0.0000000000000000  0.0000000000000000  2.3709644719071257
  1.8863900000000000  1.8863900000000000  0.0000000000000000
