Co Sb 
 1.0000000000000000
     1.9408025384136682   -3.3615685922779859   -0.0000000000000000
     1.9408025384136682    3.3615685922779859   -0.0000000000000000
    -0.0000000000000000    0.0000000000000000    5.2238012200732653
 Co  Sb 
   2   2
Cartesian
  0.0000000000000000  0.0000000000000000  0.0000000000000000
  0.0000000000000000  0.0000000000000000  2.6118999999999999
  1.9408000000000001  1.1205255743799785  3.9178499999999996
  1.9408000000000001 -1.1205255743799785  1.3059499999999999
