 Y Ni  B 
 1.0000000000000000
     2.4862401026063332   -4.3062944485230110    0.0000000000000000
     2.4862401026063332    4.3062944485230110   -0.0000000000000000
     0.0000000000000000    0.0000000000000000    6.9639025716962024
 Y   Ni  B  
   2   8   2
Cartesian
  0.0000000000000000  0.0000000000000000  3.4819499999999999
  0.0000000000000000  0.0000000000000000  0.0000000000000000
  2.4862400000000000  1.4354328708599722  0.0000000000000000
  2.4862400000000000 -1.4354328708599722  0.0000000000000000
  2.4862400000000000  0.0000000000000000  4.9341887312198143
  1.2431200000000000 -2.1531449999999999  4.9341887312198143
  1.2431200000000000  2.1531449999999999  4.9341887312198143
  2.4862400000000000  0.0000000000000000  2.0297112687801855
  1.2431200000000000 -2.1531449999999999  2.0297112687801855
  1.2431200000000000  2.1531449999999999  2.0297112687801855
  2.4862400000000000 -1.4354328708599722  3.4819499999999999
  2.4862400000000000  1.4354328708599722  3.4819499999999999
