Li Co Si  O 
 1.0000000000000000
    10.8078082787675847   -0.0000000000000000    0.0000000000000007
     0.0000000000000008    4.9546905178097811    0.0215768679669473
    -0.0000000000000000    0.0132020076978555    6.0968800269289547
 Li  Co  Si  O  
   6   4   4  16
Cartesian
  0.9147337715600534  2.8355899946559449  4.6509641254483176
  6.3186387715600523  2.1323000053440517  1.4674958745516846
  9.9583618338726545  4.5360074029590445  1.5262417216114346
  4.4687828187669947  0.3380624756641382  1.5507867928543408
  4.5544568338726465  0.4318825970409533  4.5922182783885663
  9.8726878187669946  4.6298275243358651  4.5676732071456581
  7.1691103654324131  4.5632714022283904  6.0264172230455406
  1.7652053654324054  0.4046185977716110  0.0920427769544589
  3.6090531362670397  2.8503909647481445  3.1084581808351532
  9.0129581362670468  2.1174990352518548  3.0100018191648474
  1.7981412422004168  0.4257058581661981  3.1084526010956459
  7.2020462422004154  4.5421841418338031  3.0100073989043516
  3.5821493426878970  2.8730031051372005  0.0309526663350454
  8.9860543426879005  2.0816868948627998 -0.0093726663350454
  0.9803901580110154 -0.0081187808630074  1.7569533681233258
  8.7642138948158355  0.1730986408916707  3.0201344954136449
  3.3603088948158386  4.7947913591083307  3.0983255045863549
  1.8917879364834018  2.0609073099954061  3.2097359185491956
  7.2956929364834009  2.9069826900045945  2.9087240814508029
  6.4073893304621690  0.1447395211993158  1.6369198623696859
  4.3838359365184791  2.3476892068370065  1.3898056601566071
  4.3660982098861894  2.3665700560214211  4.7780341749240067
  8.9580034851390522  0.4243520057624705 -0.0266095669712177
  7.4492616177963518  2.6665649260250963  0.0087531811595942
  2.0453566177963549  2.2881250739749075  0.0128268188404046
  3.5540984851390505  4.5303379942375281  0.0481895669712171
  9.7877409365184818  2.6202007931629949  4.7286543398433922
  1.0034843304621717  4.8231504788006845  4.4815401376303168
  9.7700032098861982  2.6013199439785812  1.3404258250759917
  6.3842951580110201  0.0213187808630074  4.3399266318766765
