Ba Li  V  P  O 
 1.0000000000000000
     8.9974233772282783    0.0945793832922966    3.1301861093509245
     7.4367397360015257    5.0653207981147688    3.1301861093509227
     0.0550018736457451    0.0172691591197571    9.6656560221083208
 Ba  Li  V   P   O  
   4   2   2   4  18
Cartesian
 11.5985243766543462  3.5359685951226383  8.4106993991804266
 11.5656247699315440  3.7369753440534264 13.2435293991804190
  6.2954308500632887  1.8603260395063970  7.9812023848328773
  6.2014671709383169  2.0633767587913661  3.1483723848328751
  9.1810971694350343  3.0001425100375854  6.2653383418602031
  9.2757690131687216  2.7948362981807029 11.0981683418602053
  0.4765817772571971  0.3545906264585625  0.2112172509727109
  0.6212345612717943 -0.0099040539453091  5.0440472509727101
  2.5324679364350811  0.8799095618226093  2.6841408869139660
  2.6084281184724527  0.7341996831412356  7.5169708869139749
 14.8047100387969675  4.8696238235424660 13.6731398820911743
 14.9037206711259742  4.4580545509541816  8.8403098820911747
  5.2580885698425135  2.9613320037654947  5.6526709502327472
  2.2410157192141207  0.9307642054095598  1.1519116131726523
  2.3983505917393888  0.5258772827500414  5.9847416131726474
  9.1227542715491570  4.8037713423491963 11.4586927336812980
 10.4926069268196276  4.5156727458392778  6.1085988997426375
  4.0617637498468708  0.3788567777961157  7.8609762374741310
  6.0346276975824074  0.5842897644712131 10.4855009502327459
  6.4515866739419945  0.4331688775380595  5.2281899689947320
  3.5218639091631876  2.0022067997608972  3.0281462374741364
  8.4437881072177419  0.5916886801709020  9.7038258833957176
 15.2760371836673396  4.8345322674487310 15.1615786667557035
 15.2704016464014884  4.7562593150874912 10.3287486667557022
  8.9992140162128429  2.1802135963744047 12.8841079953890709
  5.5688370187695124  3.3409339816927046 10.0610199689947279
 11.2181811420046014  2.3009529105184154 10.9414288997426326
 10.2038484418188702  1.2642822364937545  6.6258627336812985
  8.6028569483082702  3.3463822599799982  8.0512779953890732
  7.2391130434692874  4.3323367980278595  4.8709958833957137
