Na Mg Be 
 1.0000000000000000
    -2.2612376694911047    2.2612376694911047    3.1979987619401555
     2.2612376694911047   -2.2612376694911047    3.1979987619401555
     2.2612376694911047    2.2612376694911047   -3.1979987619401555
 Na  Mg  Be 
   1   1   2
Cartesian
  0.0000000000000000  2.2612399999999999  1.5990000000000000
  2.2612399999999999  0.0000000000000000  1.5990000000000000
  0.0000000000000000  0.0000000000000000  0.0000000000000000
  0.0000000000000000  0.0000000000000000  3.1980000000000000
