Li Mn Sb  P  O 
 1.0000000000000000
     0.0000000000000000    4.7411484680057550    0.1125944911845198
     6.1929518085690836    0.0000000000000000    0.0000000000000000
     0.0000000000000000   -0.5213910817121377  -11.0585721742062884
 Li  Mn  Sb  P   O  
   4   3   1   4  16
Cartesian
  1.5892321757399943 -0.4289527038824194 -10.9198037500019840
  4.6037178242600039 -0.4289527038824194 -10.9198037500019840
  4.7040495062715362  1.9279249171260873 -5.6951362021045409
  1.4889004937284616  1.9279249171260873 -5.6951362021045409
  0.0000000000000000 -0.3038893613713639 -8.0089730722372625
  0.0000000000000000  2.4026290025290473 -2.0559207153357444
  3.0964749999999999  2.0736471110670882 -8.6608260033697047
  3.0964749999999999  4.4427016257478877 -3.0949696946421188
  0.0000000000000000  4.0589000823223209 -4.6124377768239100
  0.0000000000000000  2.3730840123916814 -9.9049091228127750
  3.0964749999999999  2.0660085598623996 -0.7236556164051650
  3.0964749999999999 -0.0756025118666930 -6.7287685775706523
  4.9942351437137811  3.4809302847365862 -3.7687635095655021
  3.0964749999999999  3.1326072748430889 -6.6332837369984814
  3.0964749999999999  3.5972879720756548 -0.5691249708011151
  1.2322200988364909  2.9828997125974070 -9.1482550741473680
  4.9607299011635035  2.9828997125974070 -9.1482550741473680
  0.0000000000000000  3.5340473490729423 -0.2701032772892857
  3.0964749999999999  0.8525778697765442 -10.3765375504531132
  1.8551931348241304  0.5695916088197884 -7.4204562063826902
  1.8054126912777293  1.5303471625256342 -1.4365968513366638
  0.0000000000000000  0.8419664109863331 -9.9038623471351528
  0.0000000000000000  0.8332287227638081 -4.8219928545398485
  4.3377568651758711  0.5695916088197884 -7.4204562063826902
  1.1987148562862229  3.4809302847365862 -3.7687635095655021
  3.0964749999999999  0.5036384165186278 -5.2724332280846795
  4.3875373087222655  1.5303471625256342 -1.4365968513366638
  0.0000000000000000  3.3557649706644734 -5.9990918944935485
