Ca Mo  O 
 1.0000000000000000
     5.3063746499986886    0.1480139856340907    4.3507797317010537
     2.1451867643138565    4.8556869257315682    4.3507798094520744
     0.2204250913036332    0.1480140181003853    6.8584485699016078
 Ca  Mo  O  
   1   4   8
Cartesian
  3.8359969247599954  2.5758597076799878  7.7800024923300066
  4.9085933816099914  5.0036954403300111  9.9554018584499833
  6.4891749140600128  2.6498599999999999  9.9553975076699945
  3.7257800000000003  2.5018500000000001  4.3507800000000003
  0.0000000000000000  0.0000000000000000  0.0000000000000000
  4.7663759732980440  1.4992329936795230  9.6669672840672423
  1.9467416554721448  1.3072285893187205  7.1423036897881653
  2.9056106450919246  3.6524815659904624  5.8930358574826940
  4.4804348277188399  1.3072285894142903  5.8930427161332624
  2.0249216485681223  1.3597300449904539  4.1068615952674064
  5.6470704966218701  3.7919848106995326 11.4531527555125852
  3.1915573174711693  3.8444862662757329  9.6669716346467585
  5.7252507101478631  3.8444864143813016  8.4177175194418350
