Na Be Sn 
 1.0000000000000000
    -0.0000000000000000    4.2621277664416199    4.2621277664416199
     4.2621277664416199   -0.0000000000000000    4.2621277664416199
     4.2621277664416199    4.2621277664416199   -0.0000000000000000
 Na  Be  Sn 
   4   1   1
Cartesian
  5.3269626354120696  3.1972973645879601  3.1972973645879601
  5.3269626354120696  5.3269626354120696  5.3269626354120696
  3.1972973645879601  5.3269626354120696  3.1972973645879605
  3.1972973645879605  3.1972973645879605  5.3269626354120696
  0.0000000000000000  0.0000000000000000  0.0000000000000000
  2.1310650000000000  2.1310650000000000  2.1310650000000000
