Ho Ga Co 
 1.0000000000000000
     4.2229798343575595    0.0000000000000000    0.0000000000000000
     0.0000000000000000    4.2229798343575595   -0.0000000000000000
    -0.0000000000000000    0.0000000000000000   11.0799503003952307
 Ho  Ga  Co 
   2   8   1
Cartesian
  0.0000000000000000  0.0000000000000000  7.6939378668207343
  0.0000000000000000  0.0000000000000000  3.3860121331792676
  2.1114899999999999  0.0000000000000000  5.5399750000000001
  2.1114899999999999  0.0000000000000000  9.7873270348626527
  0.0000000000000000  2.1114899999999999  5.5399750000000001
  0.0000000000000000  2.1114899999999999  9.7873270348626527
  2.1114899999999999  2.1114899999999999  3.3787617454553436
  2.1114899999999999  2.1114899999999999  7.7011882545446539
  0.0000000000000000  2.1114899999999999  1.2926229651373475
  2.1114899999999999  0.0000000000000000  1.2926229651373475
  0.0000000000000000  0.0000000000000000  0.0000000000000000
