Sc Fe  B Ir 
 1.0000000000000000
     9.2871808620916418    0.0000000000000000    0.0000000000000000
     0.0000000000000000    9.2871808620916418    0.0000000000000000
     0.0000000000000000   -0.0000000000000000    3.1017056045629601
 Sc  Fe  B   Ir 
   4   2   4  10
Cartesian
  1.6400206402855164  6.2836106402855165  0.0000000000000000
  7.6471593597144825  3.0035693597144824  0.0000000000000000
  3.0035693597144824  1.6400206402855164  0.0000000000000000
  6.2836106402855165  7.6471593597144825  0.0000000000000000
  0.0000000000000000  0.0000000000000000  0.0000000000000000
  4.6435899999999997  4.6435899999999997  0.0000000000000000
  1.1557790306478746  3.4878109693521253  0.0000000000000000
  5.7993690306478749  1.1557790306478746  0.0000000000000000
  3.4878109693521253  8.1314009693521250  0.0000000000000000
  8.1314009693521250  5.7993690306478749  0.0000000000000000
  1.9926882697058967  8.6269713950426539  1.5508550000000001
  4.6435899999999997  0.0000000000000000  1.5508550000000001
  6.6362782697058984  5.3037986049573451  1.5508550000000001
  5.3037986049573451  2.6509017302941031  1.5508550000000001
  3.9833813950426555  6.6362782697058984  1.5508550000000001
  2.6509017302941031  3.9833813950426555  1.5508550000000001
  0.0000000000000000  4.6435899999999997  1.5508550000000001
  8.6269713950426539  7.2944917302941006  1.5508550000000001
  7.2944917302941006  0.6602086049573449  1.5508550000000001
  0.6602086049573449  1.9926882697058967  1.5508550000000001
