Li Sm Ag 
 1.0000000000000000
     0.0000000000000000    3.6890249798161876    3.6890249798161876
     3.6890249798161876   -0.0000000000000000    3.6890249798161876
     3.6890249798161876    3.6890249798161876    0.0000000000000000
 Li  Sm  Ag 
   1   2   1
Cartesian
  5.5335300000000007  5.5335300000000007  5.5335300000000007
  0.0000000000000000  0.0000000000000000  0.0000000000000000
  3.6890200000000002  3.6890200000000002  3.6890200000000002
  1.8445100000000001  1.8445100000000001  1.8445100000000001
