Tl  B Te 
 1.0000000000000000
    -0.0000000000000000    3.7524500835602996    3.7524500835602996
     3.7524500835602996   -0.0000000000000000    3.7524500835602996
     3.7524500835602996    3.7524500835602996    0.0000000000000000
 Tl  B   Te 
   1   1   2
Cartesian
  5.6286750000000003  5.6286750000000003  5.6286750000000003
  3.7524500000000001  3.7524500000000001  3.7524500000000001
  0.0000000000000000  0.0000000000000000  0.0000000000000000
  1.8762250000000000  1.8762250000000000  1.8762250000000000
