Ba Ca 
 1.0000000000000000
     5.6675926203737008    0.0000000000000000   -0.0000000000000000
    -0.0000000000000000    5.6675926203737008   -0.0000000000000000
     0.0000000000000000    0.0000000000000000    5.6675926203737008
 Ba  Ca 
   1   3
Cartesian
  0.0000000000000000  0.0000000000000000  0.0000000000000000
  0.0000000000000000  2.8337949999999998  2.8337949999999998
  2.8337949999999998  0.0000000000000000  2.8337949999999998
  2.8337949999999998  2.8337949999999998  0.0000000000000000
