Sm  Y Ni 
 1.0000000000000000
     5.4471418357552981   -0.0123645200194993    0.0000000000000003
    -4.1644524474453268    3.5112452026535448    0.0000000000000004
    -0.0000000000000000    0.0000000000000000    4.2501874789657546
 Sm  Y   Ni 
   1   1   2
Cartesian
 -2.8233122435048572  3.0195887441449494  0.0000000000000000
  4.1211969120040415  0.4737308886348082  2.1250950000000000
 -0.0888667813523872  2.0171407230688243  0.0000000000000000
  1.3563525012632258  1.4873231677614096  2.1250950000000000
