 V Mo  W 
 1.0000000000000000
     0.0000000000000000    3.0734165624899203    3.0734165624899203
     3.0734165624899203    0.0000000000000000    3.0734165624899203
     3.0734165624899203    3.0734165624899203    0.0000000000000000
 V   Mo  W  
   2   1   1
Cartesian
  0.0000000000000000  0.0000000000000000  0.0000000000000000
  3.0734200000000000  3.0734200000000000  3.0734200000000000
  1.5367038531600155  1.5367038531600155  1.5367038531600155
  4.6101299999999998  4.6101299999999998  4.6101299999999998
