Ba Mn  V Ag  O 
 1.0000000000000000
     2.7759246631726104   -4.8080432876472834   -0.0000000000000000
     2.7759247540383791    4.8080432351859139    0.0000000000000000
     0.0000000000000000   -0.0000000000000000    7.3267106804448430
 Ba  Mn  V   Ag  O  
   1   1   2   2   8
Cartesian
  0.0000000000000000  0.0000000000000000  0.0000000000000000
  0.0000000000000000  0.0000000000000000  3.6633550000000001
  2.7759200000000002  1.6026832053599693  1.8436968048093945
  2.7759200000000002 -1.6026832053599691  5.4830131951906083
  2.7759200000000002 -1.6026832053599691  2.2875098222830399
  2.7759200000000002  1.6026832053599693  5.0392001777169604
  2.7759200000000002  1.6026832053599693  0.1404009495534353
  2.7759200000000002 -1.6026832053599691  7.1863090504465630
  2.3022237969777812  3.2183293571591851  2.3709091280960770
  4.4119598813899836  1.2050887380869726  2.3709091280960770
  1.6135763216322354  0.3846219047538431  2.3709091280960770
  3.2496162030222195 -3.2183293571591842  4.9558008719039242
  3.9382636783677656 -0.3846219047538443  4.9558008719039242
  1.1398801186100160 -1.2050887380869717  4.9558008719039242
