Ba Zr  O 
 1.0000000000000000
    -1.9702500386832316    2.1275075910555081    6.9181951902112457
     1.9702500386832316   -2.1275075910555081    6.9181951902112457
     1.9702500386832316    2.1275075910555081   -6.9181951902112457
 Ba  Zr  O  
   2   1   3
Cartesian
 -0.0000000000000000 -0.0000000000000000  8.9846144215913775
 -0.0000000000000000  0.0000000000000000  4.8517833804665988
  0.0000000000000000  0.0000000000000000  0.0000000000000000
 -0.0000000000000000 -0.0000000000000001 11.7381464279745380
  0.0000000000000000 -0.0000000000000000  2.0982513739750988
  0.0000000000000000  2.1275100830533411 -0.0000000000000002
