Li Be Te 
 1.0000000000000000
     0.0000000000000000    3.7482374050638616    3.7482374050638616
     3.7482374050638616   -0.0000000000000000    3.7482374050638616
     3.7482374050638616    3.7482374050638616    0.0000000000000000
 Li  Be  Te 
   4   1   1
Cartesian
  4.6944549971590783  2.8020212546008767  2.8020212546008767
  4.6944549971590783  4.6944549971590783  4.6944549971590783
  2.8020212546008767  4.6944549971590783  2.8020212546008767
  2.8020212546008767  2.8020212546008767  4.6944549971590783
  0.0000000000000000  0.0000000000000000  0.0000000000000000
  1.8741200000000000  1.8741200000000000  1.8741200000000000
