 Y Mg As 
 1.0000000000000000
     4.3161165632338694    0.0000149029126510   -0.0000315674570601
    -2.1580453753194222    3.7378735643357981    0.0000315674534667
    -0.0000581645231242    0.0000335812991795    6.9336712833991037
 Y   Mg  As 
   1   2   2
Cartesian
  0.0000000000000000  0.0000000000000000  0.0000000000000000
 -0.0001009082762858  2.4919771044532606  2.4958618279190117
  2.1581109082762855  1.2459328955467388  4.4378081720809872
  2.1579596483164045  1.2460220556783157  1.7034096294321710
  0.0000503516835952  2.4918879443216841  5.2302603705678301
