In Si  O 
 1.0000000000000000
     4.7097223033436819    0.0034309794853107   -0.6469836788652674
    -0.9466022065088955    5.2298045771035948   -1.4009083251550407
     0.0046895375838356    0.0040905223252000    5.4963095383399478
 In  Si  O  
   2   2   7
Cartesian
 -0.2875985337024355  1.6097151126947158  3.3771052144718752
 -0.6543114662975644  3.6241748873052839  0.7182947855281260
  1.7271310531172359  1.1546530391251051  0.6366188598603976
  2.0406789468827649  4.0826669608748949  2.8118011401396026
  2.8065663288589779  4.8220848435893107  1.5489438383481573
  0.6638585926549327  2.0488570577201197 -0.2566805424412364
  0.9612436711410226  0.4152351564106894  1.8994761616518441
  3.1039514073450665  3.1884629422798803  3.7051005424412362
  2.3548600000000000  0.0017150000000000 -0.3234900000000000
  0.7555872589834287  3.1915508014169838  2.3138852174547844
  3.0122227410165721  2.0457691985830149  1.1345347825452168
