La Ge Rh 
 1.0000000000000000
    -3.0670389445862369    5.1094025877995328    6.1225655838639375
     3.0670389445862369   -5.1094025877995328    6.1225655838639375
     3.0670389445862369    5.1094025877995328   -6.1225655838639375
 La  Ge  Rh 
   4  10   6
Cartesian
  3.0670400000000448  2.7362807457769214  4.4966967570029333
 -0.0000000000000431  2.3731192542230763  1.6258732429970646
  3.0670399999999782  2.3731192542230404 -1.6258732429969345
  0.0000000000000222  2.7362807457769600  7.7484432429969319
  3.0670399999999982 -1.6013833903746064  4.8953469936631411
  4.6005599999999998  0.0000000000000002  0.0000000000000000
  1.5335199999999998 -0.0000000000000002  8.8835444532517087
  1.5335200000000000  0.0000000000000000  0.0000000000000000
  1.5335199999999998  5.1093999999999999 -2.7609744532517064
  1.5335199999999993  5.1094000000000008  2.7609744532517064
  3.0670400000000244  3.5080166096253547  1.2272230063368132
 -0.0000000000000213  1.6013833903746424  4.8953469936631873
 -0.0000000000000003  6.7107833903746057  1.2272230063368559
  1.5335199999999996  0.0000000000000009  3.3615955467482923
  1.5335200000000000  0.0000000000000000  6.1225699999999996
 -0.0000000000000232  1.1070751440189086 10.5332569124446458
  3.0670400000000222  4.0023248559810956 -4.4106869124446462
 -0.0000000000000011  4.0023248559811320  4.4106869124446026
  3.0670399999999995  1.1070751440188684  1.7118830875553999
  1.5335200000000000  5.1093999999999999  0.0000000000000000
