Mn Tc 
 1.0000000000000000
     6.9967447110777634    0.0000000000000000   -2.4737227987989354
    -3.4983723555388817    6.0593584181483289   -2.4737227987989354
    -0.0000000000000000   -0.0000000000000000    7.4211683963968058
 Mn  Tc 
  28   1
Cartesian
  3.6059693932390187  2.3966159201285451  0.1927213768354502
  2.2200029346915207  3.8451613129449322  1.5697847453629663
  2.5567341306170075  0.0000000000000000 -0.9039416004579177
  5.7183729346915193  2.2141986870550681  4.0435083995421000
  0.0000000000000000  0.0000000000000000  2.7118284555528347
  1.3836856097814740  2.3966159201285451  3.3355069578467162
  3.1182268887083064  1.9245559312034970  5.1401674216060043
  0.1075993932389695  3.6627440798714557  5.1401674216060567
  5.8855981082712541  1.9245559312034970  1.2265113751115793
 -0.3801431112917449  4.1348040687965018  2.6664442454357138
  3.7709137180527521  1.7381881486679152  2.6664442454357680
  2.2222837834574944  0.0000000000000000  3.7002313751115778
  4.2293687804370528  0.0000000000000000  0.8617830026172011
  4.8820556097814727  3.6627440798714557 -1.6119369973827975
  0.6780483641876679  1.1744152665420740  5.1289326303735869
  0.2725437180527025  4.3211718513320836  0.1927213768355048
  2.3872281082712523  4.1348040687965018 -1.2472118010587818
  1.3065868355968786  2.2630768066603340 -0.5144593413609621
  1.5632446929939592  4.8849447334579272 -3.5440916445063051
  3.4488601072214951  3.7962831933396650 -3.5440916445063229
 -2.8203216358123333  4.8849447334579272  2.6552106921899608
  5.0616146929939090  1.1744152665420740 -1.0703697063226065
 -1.5137348002154289  4.9706984598816968 -1.0703697063226425
  5.6406432716246160  0.0000000000000000  2.6552106921899261
  4.3835663288062436  0.0000000000000000  4.4329869237943713
 -2.1917831644031209  3.7962831933396650  4.4329869237943713
 -0.0495098927784567  2.2630768066603340  1.4033520903382750
  1.9846351997845215  1.0886615401183031  1.4033520903383097
  0.0000000000000000  0.0000000000000000  0.0000000000000000
