Zn Cu Sn  S 
 1.0000000000000000
     6.3703099057496608    0.0000000000000000    0.0000000000000000
     0.0000000000000000    6.6766074042647334    0.0000000000000000
     0.0000000000000000    0.0000000000000000    7.6799802685257870
 Zn  Cu  Sn  S  
   2   4   2   8
Cartesian
  3.1925306884241116  5.5689748145134068  3.8399899999999998
  0.0073756884241125  1.1076351854865962  0.0000000000000000
  3.1622869484961895  2.2129945662717478  5.7541585765602816
  3.1622869484961895  2.2129945662717478  1.9258214234397186
  6.3474419484961908  4.4636154337282532  5.7658114234397173
  6.3474419484961908  4.4636154337282532  1.9141685765602829
  0.0042802661352675  1.0902565287370389  3.8399899999999998
  3.1894352661352672  5.5863534712629654  0.0000000000000000
  0.8539098284597305  2.3037741857397060  5.8165853852419023
  0.8539098284597305  2.3037741857397060  1.8633946147580984
  4.0390648284597299  4.3728358142602968  5.7033846147580975
  4.0390648284597299  4.3728358142602968  1.9765953852419007
  3.9010798540987115  1.1423896340429855  3.8399899999999998
  0.7159248540987135  5.5342203659570153  0.0000000000000000
  0.8279855887400859  5.4486145648359177  3.8399899999999998
  4.0131405887400859  1.2279954351640825  0.0000000000000000
