Li Mn Co  O 
 1.0000000000000000
     6.1573746592805980    0.0110054238705478    1.4655768825104416
     5.4918461260445151    2.7844236286436121    1.4655768824535349
     0.0662450225806530    0.0158970060239541   11.6242414781907524
 Li  Mn  Co  O  
   7   2   3  12
Cartesian
  7.8018652952303302  1.8721926025596705  8.9235373097728470
  3.9151351627170885  0.9395047164795239  5.9490869160402493
 11.6299763187399190  2.7908126905499362  5.8145654623786642
  7.8222710822240629  1.8770881721139345  2.8035230603172612
  3.8317116888887219  0.9194868588197865 11.4450786996796339
  0.1490310084146563  0.0357641772002778  8.7413904556915618
  7.8452746611848978  1.8826099140865209 11.5479034114011103
  0.1203364104150055  0.0288789528606416 11.5934413305898474
  7.7855255378537347  1.8682710201409476  5.8398277552346780
  0.0472915809625924  0.0113495151702563  5.8224089023330805
  3.8768386844491345  0.9303142538661338  2.9201503558163568
  3.9061894867697529  0.9373585740494311  8.7505371336016946
  5.7338920517655225  1.3759459311999513  2.8169540523706464
  5.9232801380075291  1.4213934225764964  5.9255266580655093
  1.9873826257896827  0.4769070018948983  3.0499256127999588
  9.7512984665908995  2.3399913224664228  3.1131757576978751
  5.8171092223637544  1.3959170015155222 11.8164353634525323
  2.0899337072929329  0.5015169476907563  8.7068449032632333
  9.8518113509640894  2.3641121858660119  8.8652288520580331
  9.8110120297581283  2.3543221798615583 11.4696958357165268
  5.8103563264081481  1.3942959163907296  8.5516286392627308
  1.9485425712839477  0.4675871603872250  5.6808590332944551
  9.6527070960044643  2.3163331282323041  5.7273186251727690
  1.8613317909811804  0.4466605664611018 11.6708798181488174
