Tl  I  O 
 1.0000000000000000
     4.0432865597922927   -0.0000000000000000   -0.0000000000000000
     0.0000000000000000    4.0432865597922927    0.0000000000000000
     0.0000000000000000    0.0000000000000000    8.9066503269579655
 Tl  I   O  
   2   2   2
Cartesian
  2.0216439592921320  0.0000000000000000  7.7911772991745218
  0.0000000000000000  2.0216439592921320  1.1154689927183354
  0.0000000000000000  2.0216439592921320  5.9072074649669535
  2.0216439592921320  0.0000000000000000  2.9994388269258407
  2.0216439592921320  2.0216439592921320  0.0000000000000000
  0.0000000000000000  0.0000000000000000  0.0000000000000000
