La Se 
 1.0000000000000000
    -4.5498615117833587    4.5498615117833587    4.5498615117833587
     4.5498615117833587   -4.5498615117833587    4.5498615117833587
     4.5498615117833587    4.5498615117833587   -4.5498615117833587
 La  Se 
   6   8
Cartesian
 -1.1374650000000002  2.2749299999999999  4.5498599999999998
  1.1374649999999999  2.2749299999999999  0.0000000000000001
  2.2749299999999995  0.0000000000000002  3.4123950000000001
  6.8247900000000001 -0.0000000000000002  1.1374649999999999
  0.0000000000000001  5.6873249999999995  2.2749300000000003
  4.5498599999999998  3.4123949999999996  2.2749299999999999
  0.6852163314850819 -0.6852163314850819  0.6852163314850819
  3.8646436685149173  3.8646436685149177 -0.6852163314850807
  3.8646436685149181  0.6852163314850819  0.6852163314850821
  0.6852163314850822  5.2350763314850823 -0.6852163314850822
  2.9601463314850820 -2.9601463314850820  2.9601463314850820
  1.5897136685149182  1.5897136685149185  6.1395736685149167
 -1.5897136685149180  2.9601463314850820  1.5897136685149180
  1.5897136685149178  2.9601463314850820  2.9601463314850824
