Zn Cr Cu Se 
 1.0000000000000000
     3.9704960228544666   -3.9704960228544675   -0.0000000044794614
     3.9704960228544666    3.9704960228544675   -0.0000000044794614
    -3.9704950292127523   -0.0000000000000000    5.5116864569775093
 Zn  Cr  Cu  Se 
   1   1   2   4
Cartesian
  0.0000000000000000  0.0000000000000000  0.0000000000000000
  3.9704999999999999  0.0000000000000000  0.0000000000000000
  1.9852500000000000 -1.9852500000000002  2.7558449999999999
  1.9852500000000000  1.9852500000000000  2.7558449999999999
  3.9705000000005932 -1.9089687983651948  1.3863107342306726
  3.9705000000005932  1.9089687983651946  1.3863107342306726
  1.9089687983646024  0.0000000000000001  4.1253792657695270
 -1.9089687983657873 -0.0000000000000000  4.1253792657691255
