Ho Tm Cd 
 1.0000000000000000
     4.5094333041511554    0.0000000000000000    2.6035225621957259
     1.5031444347170517    4.2515342569883927    2.6035225621957259
    -0.0000000000000000    0.0000000000000000    5.2070451243914517
 Ho  Tm  Cd 
   1   1   2
Cartesian
  3.0062850000000001  2.1257649999999999  5.2070449999999999
  0.0000000000000000  0.0000000000000000  0.0000000000000000
  4.5094275000000001  3.1886475000000001  7.8105675000000003
  1.5031425000000000  1.0628825000000000  2.6035225000000000
