Tb Ag As 
 1.0000000000000000
     3.9995194129830547   -0.0000000000000000   -0.0000000000000000
    -0.0000000000000000    3.9995194129830547   -0.0000000000000000
     0.0000000000000000   -0.0000000000000000   10.3586207354791107
 Tb  Ag  As 
   2   2   4
Cartesian
  0.0000000000000000  1.9997600000000000  2.3434002396638993
  1.9997600000000000  0.0000000000000000  8.0152197603361017
  0.0000000000000000  0.0000000000000000  5.1793100000000001
  1.9997600000000000  1.9997600000000000  5.1793100000000001
  0.0000000000000000  0.0000000000000000  0.0000000000000000
  1.9997600000000000  1.9997600000000000  0.0000000000000000
  0.0000000000000000  1.9997600000000000  7.1316089703204648
  1.9997600000000000  0.0000000000000000  3.2270110296795353
