Na Co  S  O  F 
 1.0000000000000000
     4.3217756884480574    3.3017492998823590   -0.0047061440508936
    -4.3217756884480574    3.3017492998823590   -0.0047061440508936
     0.0000000000000000    2.9407256956354679    6.4672389375985677
 Na  Co  S   O   F  
   2   2   2   8   2
Cartesian
 -1.4051444469928833  4.0369325000000007  1.6121000000000001
  1.4051444469928835  5.5072975000000008  4.8457200000000000
  0.0000000000000000  0.0000000000000000  0.0000000000000000
  0.0000000000000000  1.4703649999999999  3.2336200000000002
  1.5746226832752155  4.0369325000000229  1.6121000000000001
 -1.5746226832752155  5.5072975000000230  4.8457200000000000
  2.4270699279281240  2.9982600199354454  0.9509279137524407
  2.4270699279281236  5.0756049800645551  2.2732720862475602
 -2.4270699279281236  6.5459699800645543  5.5068920862475590
 -2.4270699279281240  4.4686250199354456  4.1845479137524411
  0.6910808941184703  4.6609743475652898  0.5813775890570142
  0.6910808941184692  3.4128906524347111  2.6428224109429861
 -0.6910808941184692  4.8832556524347108  5.8764424109429862
 -0.6910808941184703  6.1313393475652900  3.8149975890570147
 -3.5826828598548621  4.0369325000000007  1.6121000000000001
  3.5826828598548617  5.5072975000000008  4.8457200000000000
