Ce Ni Sn 
 1.0000000000000000
    -3.8125498518615113    3.8125498518615113    3.9891426418380966
     3.8125498518615113   -3.8125498518615113    3.9891426418380966
     3.8125498518615113    3.8125498518615113   -3.9891426418380966
 Ce  Ni  Sn 
   2   8   4
Cartesian
  3.8125499999999999  0.0000000000000000  0.0000000000000000
  0.0000000000000000  3.8125499999999999  0.0000000000000000
  6.5598011806447296  1.0650340116141910  0.6750077735364430
 -2.7472511806447297  2.7475159883858096  4.6641477735363868
  1.0650340116142176  1.0652988193552422 -0.6750077735364143
  2.7475159883857794  2.7472511806447582  3.3141322264635851
  1.0652988193552404  1.0650340116142194  4.6641477735364161
  2.7472511806447564  2.7475159883857811  0.6750077735364158
 -1.0650340116141908  1.0652988193552702  3.3141322264635571
  4.8775840116141911  2.7472511806447293 -0.6750077735363871
  1.2136305495554558 -1.2136305495554558  5.9837099999999994
 -1.2136305495554558  1.2136305495554558  5.9837100000000003
  2.5989194504445758  2.5989194504445763 -1.9945700000000297
  1.2136305495554256  1.2136305495554254  1.9945700000000264
