Ca Zr  P  O 
 1.0000000000000000
     7.7353024776698964   -0.0159998414246606    4.8627603173755860
     2.6788739452845785    7.2566383171680107    4.8627603563527222
    -0.0230125224931972   -0.0159999114914420    9.1367836629945742
 Ca  Zr  P   O  
   1   4   6  24
Cartesian
  5.1955799999999996  3.6123200000000000  9.4311499999999988
  3.6572549046712512  2.5427719402352165  6.6387428533869608
  8.9500203665877560  6.2226618723269214 16.2463063951144910
  6.7339050953287485  4.6818680597647795 12.2235571466130324
  1.4411396334122475  1.0019781276730773  2.6159936048855092
  6.6393570839472922  6.9129610000766126  9.5664069273031789
  7.0032023914402188  3.4083928109571571  6.3186079308256771
  8.0607393793110571  1.8468351948167527 10.7238004256139412
  2.3304206206889346  5.3778048051832501  8.1384995743860546
  3.7518029160527040  0.3116789999233878  9.2958930726968223
  3.3879576085597805  3.8162471890428415 12.5436920691743250
  7.6055771077834029  0.5319808023741415 11.3640449002139956
  8.2352774692261317  1.7320056523377749  9.2061323119905740
  5.7030937145520184  3.0535414646873269  7.1027979845769389
  2.1558825307738658  5.4926343476622259  9.6561676880094218
  8.7385665398771302  4.9424900051592893 12.3298238206135640
  5.3815625069610915  7.1165635227475939  8.7158389758602546
  7.5900778561946618  4.6583549273380642  6.9820381970303940
  6.9782090987808845  2.9419778826435925 10.9686497351066148
  5.0095974930389087  0.1080764772523979 10.1464610241397359
  6.6364468348947421  3.6711764286099906 13.9748110202112823
  3.4129509012191170  4.2826621173564101  7.8936502648933811
  4.0710245241327954  0.7543658350006994  5.7853445115983133
  6.3201354758672084  6.4702741649993039 13.0769554884016923
  7.9625756648997896  2.2151970424047276  6.3612288623493463
  2.8010821438053335  2.5662850726619357 11.8802618029696028
  3.7547131651052537  3.5534635713900093  4.8874889797887136
  2.4285843351002061  5.0094429575952715 12.5010711376506514
  2.7855828922165973  6.6926591976258551  7.4982550997860073
  7.9238399563049091  6.9441981752749662  8.7327084390864158
  4.6880662854479791  4.1710985353126722 11.7595020154230614
  3.8919438119429861  1.7078332256292881  8.6159857925527366
  1.6525934601228680  2.2821499948407147  6.5324761793864337
  2.4673200436950853  0.2804418247250354 10.1295915609135783
  6.4992161880570043  5.5168067743707132 10.2463142074472557
