 H  I  O 
 1.0000000000000000
     5.4742510453642570    0.0000000000000000    0.0000000000000000
     0.0000000000000000    5.8415088986788337    0.0000000000000000
     0.0000000000000000    0.0000000000000000    7.6763929571707825
 H   I   O  
   4   4  12
Cartesian
  1.4236063598758291  3.9386097702886635  4.8616511511771980
  4.1607313598758298  4.8236552297113366  2.8147388488227998
  4.0506436401241697  1.0178547702886607  6.6529338488228014
  1.3135186401241712  1.9029002297113402  1.0234561511771991
  1.5897524817777948  0.5419764984422782  5.0762152847143520
  4.3268774817777986  2.3787785015577207  2.6001747152856476
  3.8844975182222008  3.4627314984422797  6.4383697152856474
  1.1473725182222037  5.2995335015577201  1.2380202847143527
  3.2647001141951977  3.8730632520023480  0.4194574301965411
  0.5275751141951976  4.8892017479976522  7.2569325698034595
  0.8733774455847911  4.6898891141896879  4.4593049126764797
  3.6105024455847938  4.0723758858103123  3.2170850873235186
  4.6008725544152060  1.7691341141896864  7.0552800873235197
  2.3257967959646688  2.7869843595646522  5.6999839665425673
  3.1484532040353308  5.7077393595646519  5.8146010334574321
  0.4113282040353307  3.0545256404353487  1.8617889665425680
  4.9466748858048017  1.9684467479976526  4.2576524301965399
  5.0629217959646686  0.1337706404353488  1.9764060334574334
  1.8637475544152078  1.1516208858103127  0.6211099126764810
  2.2095498858048011  0.9523082520023483  3.4187375698034570
