 H Pb  C  O 
 1.0000000000000000
     3.9735504324875461   -0.0821969700289071   -0.1880201189521619
    -0.8977604727230907    4.2378052033941316   -0.0820160516720824
    -0.1930531683862340    0.0363715214129879   12.9594670722210754
 H   Pb  C   O  
  12   1   8   4
Cartesian
  1.6264706909788842  0.9802552730265780  6.9309693491778885
 -0.0288961812381988  0.6245977475080824  7.4408151053365739
 -0.0850118004083808  0.6890505071194060  2.0806866393813079
  2.2400884948518440  0.3555462718047692  2.4683551470311240
  0.8538184417992665  3.0241597730411858  5.7209020108840605
  0.7550366155551118  0.8151096539467393  4.5003536539912261
  0.0057845435120169  2.8963280324576739  3.2907494065434584
  2.3386424112611777  2.5647552915691225  3.6887388928744493
  3.1221285824777745  2.7551465627662908  0.7481799126851529
  1.4668970612050849  2.3993517253274481  1.2584315185892780
  3.1787834523770733  2.6909746254238098  6.1083236431915360
  3.0878777895784428  0.4835917140706121  4.8983196373405944
  2.9879648027009922  3.7856698383135936 10.4393949506620842
  0.8808058366469288  2.2908850855550380  8.4209464253246615
  0.6601360883343002  1.4395328772204079  7.1891133707062211
  0.1247367138667826  2.2458532068477632  5.9966961454602794
 -0.1651962222140837  1.3487988346493192  4.7913620334065028
  3.2588915967116385  2.0311019068400373  3.3977296482189443
  2.9689805086021273  1.1339888270196630  2.1924489239192870
  2.4332261672310476  1.9401661560714016  1.0000995259277574
  2.0193314872104398  1.1249892404856938 12.7278738016428825
  0.3441558159557794  1.9251409240253405  9.5387466572508437
  1.5658269852227937  3.3564161507172088  8.3311467451828669
  2.5561453523735929  1.4904338790123079 11.6100705259989443
  1.5270949363875352  0.0232697411605088 -0.1416531577678391
