Ta As  O 
 1.0000000000000000
    -2.6304319116139494    2.6304319291111438    3.9691293720023513
     2.6304319116139494   -2.6304319291111438    3.9691293720023513
     2.6304319291111438    2.6304319116139498   -3.9691293720023513
 Ta  As  O  
   1   1   4
Cartesian
  0.0000000000000002  2.6304243366900120  1.9845658546274878
  0.0000000000000000  0.0000000000000000  0.0000000000000000
  1.6239167851240817  1.1855694965619299  4.9175263344889037
  1.0065075515659514  1.4448548401280992  0.9483946252339001
  1.1855638332519434 -1.6239224484340677  3.0207353747660717
 -1.1855694965619310  1.6239167851240797  3.0207370841366199
