Be Zn Ir 
 1.0000000000000000
    -1.6908132916072209    1.6908132916072209    3.9341139428997027
     1.6908132916072209   -1.6908132916072209    3.9341139428997027
     1.6908132916072209    1.6908132916072209   -3.9341139428997027
 Be  Zn  Ir 
   2   1   1
Cartesian
  0.0000000000000000  0.0000000000000000  0.0000000000000000
  1.6908099999999999  0.0000000000000000  1.9670550000000000
  0.0000000000000000  1.6908099999999999  1.9670550000000000
  0.0000000000000000  0.0000000000000000  3.9341100000000000
