Bi Sb  F 
 1.0000000000000000
     8.5286195684877182   -0.1394223715636772    0.4540252688204774
    -3.1755215619967547    7.9166187953556264    0.4540252688204779
     0.1845902904680986    0.2681802098811688    4.9693173097125651
 Bi  Sb  F  
   1   3  20
Cartesian
  6.0115303783441494  1.5931100855632594  0.4540299999999998
 -0.7583639896397998  6.2528749058963582  0.4540299999999999
  1.4493376663165112  2.0902135198860083  1.4621796514230603
  4.1027771763380567  5.9452377617785244  4.4152003485769402
 -0.2159685487527910  7.4217736527131297  3.8129314878222758
  7.0655172897449967  2.5362913798216198  3.7448943395676579
  4.7561669467414482  6.8462084511470112  2.8948742723140382
  0.8410641855888562  1.1581889782670025  2.9825057276859623
  3.7833886053523149  7.7970271081923421  5.1648229077558518
  5.9937632892341339  6.3201296378128449  5.2043389740408026
  1.7743683665133216  0.1900220415785710  0.6730410259591972
 -0.3944224295498949  1.7273342673456005  0.7125570922441463
  4.4513603732166906  1.4606702646012992  4.5168886561565538
  0.9344848244449483  6.5878783763066666  1.2053844178597939
 -1.4719456177633887  5.5970393538658252  2.0644485121777225
  5.7627441500755650  3.3659014798392750  1.3604913438434461
  3.4820999617872155  5.0438871479080607  1.1671704286995661
  2.0696464380023794  2.9918177355125954  4.7102095713004326
  2.3364886020939135  5.8481234143136911  3.7772082533495279
  4.7254199718325998  4.2559351754758739  3.8479233805609323
  3.2496044984452306  2.1118107577804763  2.0294566194390722
  0.9093663120505309  3.7747424261714504  2.1001717466504726
 -0.2822327187509602  4.8201821020578279  4.6719955821402044
  5.6914591559138978  0.5400041442847356  2.1324856604323426
