Li  Y  O 
 1.0000000000000000
     3.6544475974581254    0.0000000000000000   -0.0000000000000000
    -0.0000000000000000    3.6544475974581254   -0.0000000000000000
     0.0000000000000000    0.0000000000000000    3.6544475974581254
 Li  Y   O  
   1   1   3
Cartesian
  1.8272250000000001  1.8272250000000001  1.8272250000000001
  0.0000000000000000  0.0000000000000000  0.0000000000000000
  1.8272250000000001  1.8272250000000001  0.0000000000000000
  1.8272250000000001  0.0000000000000000  1.8272250000000001
  0.0000000000000000  1.8272250000000001  1.8272250000000001
