Ag  H Br  N 
 1.0000000000000000
     2.0513612506512988    6.4576245440172926   -1.6235821132237807
    -2.0513612506512988    6.4576245440172926   -1.6235821132237807
     0.0000000000000000    2.2327401917069833    5.6270482688375880
 Ag  H   Br  N  
   2   6   2   2
Cartesian
 -1.0256799999999993  8.4360904998336821  1.9391602652926900
  1.0256800000000015  6.7118895001663157  0.4407297347073126
  1.0256799999999988 10.2926415463586594 -0.4891048950130317
 -1.0256800000000006  4.8553384536413438  2.8689948950130368
 -0.2236765732174197  4.2943967526957216  4.1844295831379457
 -0.2236765732174212  4.3959632473042785 -0.1809595831379465
  0.2236765732174154 10.8535832473042788 -1.8045395831379460
  0.2236765732174153 10.7520167526957238  2.5608495831379456
 -1.0256799999999986  8.0967330048497530 -0.8019034777911761
  1.0256800000000010  7.0512469951502457  3.1817934777911705
  1.0256800000000004 10.5672593264586361  1.9490343714419665
 -1.0256799999999988  4.5807206735413679  0.4308556285580308
