Cd Fe Cu Sn Se 
 1.0000000000000000
     5.8203731990706222   -0.0000000000000000    0.0000000000000004
     0.0000000000000009    5.8203731990706222    0.0000000000000004
    -0.0000000000000000   -0.0000000000000000   11.4885567343316026
 Cd  Fe  Cu  Sn  Se 
   1   1   4   2   8
Cartesian
  0.0000000000000000  0.0000000000000000  0.0000000000000000
  2.9101849999999998  2.9101849999999998  5.7442799999999998
  2.9101849999999998  0.0000000000000000  2.9623331023728992
  0.0000000000000000  2.9101849999999998  8.5262268976270992
  0.0000000000000000  2.9101849999999998  2.9623331023728992
  2.9101849999999998  0.0000000000000000  8.5262268976270992
  2.9101849999999998  2.9101849999999998  0.0000000000000000
  0.0000000000000000  0.0000000000000000  5.7442799999999998
  4.3578706612996720  4.3578706612996720  1.6664955151792775
  1.5604737383989582  1.5604737383989582  7.2327035879545170
  1.4624993387003278  1.4624993387003278  1.6664955151792775
  4.2598962616010407  4.2598962616010407  7.2327035879545170
  4.2598962616010407  1.5604737383989582  4.2558564120454818
  1.4624993387003278  4.3578706612996720  9.8220644848207233
  1.5604737383989582  4.2598962616010407  4.2558564120454818
  4.3578706612996720  1.4624993387003278  9.8220644848207233
