Li Cr  P  C  O 
 1.0000000000000000
     0.0000000000000000    4.9829636516875802    0.0347471661505375
     6.3133904253908444    0.0000000000000000    0.0000000000000000
     0.0000000000000000   -0.8475071114672823   -8.2284675255411432
 Li  Cr  P   C   O  
   4   2   2   2  14
Cartesian
  1.5418836636260989  3.1766496854503208 -7.3757119770586925
  2.9312668550985821  0.7017523726899177 -5.9313131877708853
  6.0879618550985821  3.4336976273100825 -2.2624068122291177
  4.6985786636261020  0.9588003145496804 -0.8180080229413068
  4.7519408802727954  3.3947466921770180 -5.5431237969493248
  1.5952458802727936  0.7407033078229470 -2.6505962030506720
  1.5754089747149880  3.1428440143015250 -4.7663554084064419
  4.7321039747149873  0.9926059856984769 -3.4273645915935562
  4.7462061414097052  2.5510733587225078 -7.8297086040159041
  1.5895111414097109  1.5843766412774927 -0.3640113959840979
  1.4131975170377571  2.3175507888688034 -1.4329999313435979
  5.9185412364034722  0.5419752511048351 -2.5150722277379964
  3.5386839216025625  0.7833032656158619 -2.4623310379215457
  1.4579363175119666  3.9518852534657705 -3.4796472298995553
  4.9153002341129115  2.5001118795333404 -3.7725218304778143
  1.7586052341129088  1.6353381204666604 -4.4211981695221834
  1.7635437424329463  1.2291004358851974 -7.4458683204012770
  2.7618462364034726  3.5934747488951650 -5.6786477722619999
  0.3819889216025646  3.3521467343841396 -5.7313889620784613
  4.5698925170377542  1.8178992111311953 -6.7607200686564015
  4.9202387424329492  2.9063495641148016 -0.7478516795987212
  4.7659718232362227  3.8417990798878217 -7.5673406175799274
  4.6146313175119662  0.1835647465342282 -4.7140727701004508
  1.6092768232362258  0.2936509201121787 -0.6263793824200700
