Ge Bi 
 1.0000000000000000
     5.9815209403160372    0.0000000000000000    0.0000000000000000
     0.0000000000000000    5.9815209403160372    0.0000000000000000
     0.0000000000000000    0.0000000000000000    5.9815209403160372
 Ge  Bi 
   7   1
Cartesian
  4.5967884966443000  4.5967884966443000  4.5967884966443000
  2.9907599999999999  0.0000000000000000  0.0000000000000000
  4.5967884966443000  1.3847315033556999  1.3847315033556999
  0.0000000000000000  2.9907599999999999  0.0000000000000000
  1.3847315033556999  4.5967884966443000  1.3847315033556999
  0.0000000000000000  0.0000000000000000  2.9907599999999999
  1.3847315033556999  1.3847315033556999  4.5967884966443000
  2.9907599999999999  2.9907599999999999  2.9907599999999999
