Mg Zn 
 1.0000000000000000
     3.1680879045881176    0.0000000150147635    0.0000000000000000
    -1.5840434263566860    2.7436429630727397    0.0000000000000000
    -0.0000000000000000   -0.0000000000000000   13.8917136978569147
 Mg  Zn 
   4   2
Cartesian
  1.5840482507099847  0.9145457521200089 12.5993643307007748
  1.5840482507099847  0.9145457521200089  8.2382006692992249
  0.0000017492900153  1.8290942478799912  5.6535093307007731
  0.0000017492900153  1.8290942478799912  1.2923456692992272
  0.0000017492900153  1.8290942478799912 10.4187824999999989
  1.5840482507099847  0.9145457521200089  3.4729274999999999
