Na  V  S 
 1.0000000000000000
     0.0000000000000000    5.8477569362633970   -0.1603930931896659
     3.3930108092913485    0.0000000000000000    0.0000000000000000
     0.0000000000000000   -1.4416428004353250   -6.8551155062523881
 Na  V   S  
   1   2   4
Cartesian
  1.6965049999999999  3.1127398208282147 -3.5255557215918132
  0.0000000000000000 -1.2772964025589000 -6.8159892991489262
  1.6965049999999999  1.3233978012627512 -6.8607109022696786
  0.0000000000000000  2.5073525680801310 -5.6250846972135662
  0.0000000000000000  1.9179331020278449 -1.4955346917568890
  1.6965049999999999 -0.4234313846181020 -5.3279288891471008
  1.6965049999999999  4.8444446472180198 -1.3597081384820480
