Ca Mn  O 
 1.0000000000000000
     0.0000000000000000    2.3784591212285857    2.3784591212285857
    -4.7552957336547790    2.3691144959418362   -2.3691144959418362
    -7.1251602819548747   -4.7351309131740971    2.3566717919455131
 Ca  Mn  O  
   5   1   6
Cartesian
 -7.1306789116579239 -0.0140200651309028  2.3924800651309042
 -9.5322718616300559 -0.0107430725566179  0.0107478294766227
 -4.7497810883420781  0.0264600651309029 -0.0264600651309030
 -2.3776500000000000  2.3737849999999998  0.0046750000000000
 -2.3481881383699448  0.0231830725566178  2.3552721705233775
  0.0000000000000000  0.0000000000000000  0.0000000000000000
 -9.5372937696755713  0.0093818523899412  2.3690805260700531
 -7.1317781083722949 -2.4232056299713363  2.4232080084313297
 -7.1235874138277033 -0.0134403514451717  0.0134403514451715
 -4.7486818916277063  2.4356456299713360 -0.0571880084313304
 -4.7568725861722969  0.0258803514451722  2.3525796485548280
 -2.3431662303244298  0.0030581476100576 -0.0030605260700520
