Be Bi  F 
 1.0000000000000000
     4.6172870346748649    0.0000000000000000   -0.0000000000000000
     0.0000000000000000    4.6172870346748649    0.0000000000000000
    -0.0000000000000000    0.0000000000000000    4.6172870346748649
 Be  Bi  F  
   1   1   3
Cartesian
  0.0000000000000000  0.0000000000000000  0.0000000000000000
  2.3086449999999998  2.3086449999999998  2.3086449999999998
  0.0000000000000000  2.3086449999999998  2.3086449999999998
  2.3086449999999998  0.0000000000000000  2.3086449999999998
  2.3086449999999998  2.3086449999999998  0.0000000000000000
