Nd Fe Si  H 
 1.0000000000000000
     6.3314687319088367   -0.0111598007267397    0.8136958563650620
     0.7354515225467536    6.2701120852984511    0.8395925146073366
    -0.0270093927237086   -0.0111598007267397    6.3834839815346678
 Nd  Fe  Si  H  
   2  15   2   2
Cartesian
  4.5765843735940717  4.0912789279086255  5.2246344019504338
  2.4633256264059282  2.1565110720913716  2.8121355980495655
  4.6556416574316026  4.1370685237728910  2.0565520198367095
  1.4256701843945450  4.1370685237728910  4.8858808077061910
  4.2995259620433348  0.9487060577147011  4.9083445018593714
  2.3842683425683973  2.1107214762271074  5.9802179801632906
  5.6142398156054565  2.1107214762271074  3.1508891922938083
  2.7403840379566651  5.2990839422852973  3.1284254981406270
  3.1657350000000002 -0.0055800000000000  0.4068500000000000
 -0.0135050000000000 -0.0055800000000000  3.1917399999999998
  1.8041382918477213 -0.0111600000000000  4.7794656549100401
  4.7654371042064128  1.7523317507666096  0.8378430675997738
  6.8367966583212620  4.4954582492333905  3.2025096052951021
  2.2744728957935885  4.4954582492333897  7.1989269324002256
  0.2031133416787375  1.7523317507666096  4.8342603947048985
  4.5003217081522786 -0.0111600000000000  2.4177143450899585
  0.3677250000000000  3.1350549999999999  0.4197950000000000
  6.3216179528093681  5.5981976564470122  7.2167669081313264
  0.7182920471906328  0.6495923435529881  0.8200030918686737
  0.3542200000000000  3.1294749999999998  3.6115349999999999
  3.5334600000000003  3.1294749999999998  0.8266450000000000
