Ti Fe  O 
 1.0000000000000000
     1.8824175800635350   -4.8770800099793767   -0.0000000000000000
     1.8824175800635350    4.8770800099793767    0.0000000000000000
     0.0000000000000000   -0.0000000000000000   10.1218158635510367
 Ti  Fe  O  
   4   2  10
Cartesian
  1.8824199999999998  3.5597172552880165  4.3833752533416703
  1.8824199999999998 -3.5597172552880170  9.4442852533416666
  1.8824199999999998  3.5597172552880165  0.6775347466583308
  1.8824199999999998 -3.5597172552880170  5.7384447466583328
  1.8824200000000004  3.0148644782716030  7.5913649999999997
  1.8824200000000004 -3.0148644782716030  2.5304549999999999
  1.8824200000000002 -2.7867908667477788  7.5913649999999997
  1.8824200000000000  2.7867908667477788  2.5304549999999999
  1.8824200000000002  4.4183596967868155  8.9651605666768983
  1.8824200000000002 -4.4183596967868155  3.9042505666768967
  1.8824200000000002  4.4183596967868155  6.2175694333231011
  1.8824200000000002 -4.4183596967868155  1.1566594333231031
  1.8824200000000000  1.8023223860095612  9.5230210016864039
  1.8824199999999998 -1.8023223860095614  4.4621110016864067
  1.8824200000000000  1.8023223860095612  5.6597089983135946
  1.8824199999999998 -1.8023223860095614  0.5987989983135945
