Ce Al Pd 
 1.0000000000000000
     4.2848309703956806    0.0000000000000000    0.0000000000000000
     0.0000000000000000    4.2848309703956806    0.0000000000000000
     0.0000000000000000    0.0000000000000000   16.6701653186954708
 Ce  Al  Pd 
   2  11   3
Cartesian
  0.0000000000000000  0.0000000000000000 16.6183948829331065
  0.0000000000000000  0.0000000000000000  8.4185484851784231
  2.1424150000000002  0.0000000000000000  5.6925381208621451
  2.1424150000000002  0.0000000000000000 13.8736891826969977
  0.0000000000000000  2.1424150000000002  5.6925381208621451
  0.0000000000000000  2.1424150000000002 13.8736891826969977
  2.1424150000000002  0.0000000000000000  2.8131697544530390
  2.1424150000000002  0.0000000000000000 11.0444809184236838
  0.0000000000000000  2.1424150000000002  2.8131697544530390
  0.0000000000000000  2.1424150000000002 11.0444809184236838
  2.1424150000000002  2.1424150000000002 15.4322795599947522
  2.1424150000000002  2.1424150000000002  1.2365474715849645
  2.1424150000000002  2.1424150000000002  9.4400692794524623
  0.0000000000000000  0.0000000000000000  4.1989009730566584
  0.0000000000000000  0.0000000000000000 12.4625884910859597
  2.1424150000000002  2.1424150000000002  7.0413932441819611
