Sb  O  F 
 1.0000000000000000
     8.3860766997444571   -0.0713093258774191    0.1939119685072148
    -2.3120923583840862    4.9968693285760821   -0.0415692964887498
    -1.0129649723664305   -2.0041320596274415    7.5603274894517662
 Sb  O   F  
   4   4  12
Cartesian
  0.0154012114679827  1.5648657212187713  3.9985040160995124
  2.4240377269874518  1.6400107838262215  1.4407460177492344
  2.6369922730125377  1.2814192161737823  6.2719239822507689
  5.0456287885320172  1.3565642787812293  3.7141659839004872
  0.8761185998233354  0.8514451776615185  5.5735304912238188
  1.4928540578083276  2.3270362878496491  2.9997785019435899
  3.5681759421916697  0.5943937121503522  4.7128914980564129
  4.1849114001766727  2.0699848223384838  2.1391395087761818
  5.0518136220838565  2.9538111434107579  4.7350882951097759
  5.4909281852946279 -0.3160267321695485  2.9528514265235377
  2.5947277018195383 -0.2298745761636266  1.7197065974522758
  2.4620785021631129 -0.5868230234438703  7.1879142267867806
  2.5989525107968920  3.5082550275738864  0.5247482128831807
  0.8697082417163408  1.4465226308072763  0.3825635449241933
 -0.4298981852946187  3.2374567321695480  4.7598185734764611
  0.0092163779161456 -0.0323811434107603  2.9775817048902349
  5.2042817582836607  3.4790373691927208 -0.2302235449241925
 -1.7754554952034833  0.9035715350368615  4.8361984404161831
  4.7783922981804627 -1.8455654238363732  6.0345334025477246
 -1.5495945047965134  2.0891684649631372  2.6825615595838173
