Li Mn  O 
 1.0000000000000000
     5.1159733584046565   -0.0073851582795738    0.0458351621021905
    -0.0797611441026760    5.7834435258142243    0.0028171064204797
    -0.3643800898810040   -0.1280680391268834    7.1624962886094936
 Li  Mn  O  
   6   6  12
Cartesian
  2.0201784691078832  0.7081259426757307  1.2798132244340210
  2.6516515308921194  4.9398540573242684  5.9313467755659799
  4.5792130471504811  2.1164641232755574  1.2425120186105614
  0.9996020569637450  5.0240964190714736  3.6517524767860143
  0.0926169528495206  3.5315158767244421  5.9686479813894389
  3.6722279430362543  0.6238835809285252  3.5594075232139795
  0.1145976637183527  0.5558769668218316  5.9661624593920788
  1.0325201233897316  2.0551943306189835  3.5553285760086411
  3.6393098766102669  3.5927856693810103  3.6558314239913594
  2.6899080174567955  2.0684534485845552  6.0251070359755499
  1.9819219825432026  3.5795265514154413  1.1860529640244473
  4.5572323362816460  5.0921030331781676  1.2449975406079221
  0.2972741453183637  0.7095362843231119  2.4133691846399565
  0.9691867754038519  2.0537466488629565  7.1525386523060908
  1.1199931477252074  5.0131898662445495  0.1253268054570268
  3.7026432245961503  3.5942333511370426  0.0586213476939083
  3.5518368522747950  0.6347901337554505  7.0858331945429720
  1.7767339694691384  0.7155497643243398  4.8566439040846179
  1.9278166212610983  3.4185099120239486  4.7606768227287573
  4.4119800329379002  2.1075838900125818  4.7804338615518791
  4.3745558546816374  4.9384437156768888  4.7977908153600426
  2.7440133787389009  2.2294700879760496  2.4504831772712428
  2.8950960305308606  4.9324302356756569  2.3545160959153781
  0.2598499670621002  3.5403961099874208  2.4307261384481209
