Er Cd Rh 
 1.0000000000000000
     0.0000000000000000    3.2924884159259711    3.2924884159259711
     3.2924884159259711    0.0000000000000000    3.2924884159259711
     3.2924884159259711    3.2924884159259711    0.0000000000000000
 Er  Cd  Rh 
   1   1   2
Cartesian
  4.9387349999999994  4.9387349999999994  4.9387349999999994
  1.6462384150200164  1.6462384150200164  1.6462384150200164
  0.0000000000000000  0.0000000000000000  0.0000000000000000
  3.2924965849799834  3.2924965849799834  3.2924965849799834
