Ca Zn Ga 
 1.0000000000000000
     4.4703452976713400    0.0294937447391028    3.6088581493311538
     2.1978366354286507    3.8928615548666339    3.6088581493311533
     0.0113728382351179    0.0066897263407952    7.2770220646270785
 Ca  Zn  Ga 
   2   3   1
Cartesian
  3.0661645217276750  1.8035749983769844  9.0746814043088637
  3.6182686121929177  2.1283314636524460  5.4123321323647291
  1.0943826173187130  0.6437364077493956  3.9732519519575771
  1.1082162622548970  0.6518743976803022  6.9147974093634677
  5.5717303831785943  3.2773930490506831  7.6355489509964318
  5.5799109351371277  3.2822057611401454 10.4736009332888500
