 Y Al Fe 
 1.0000000000000000
     4.6699120733699946   -0.0000000000921695    1.9020245087232823
     2.3349560373997482    6.1478733197978563    0.9510127540568829
     0.0159388678693917   -0.0000000003223763    6.6447374909681560
 Y   Al  Fe 
   1   8   4
Cartesian
  0.0000000000000000  0.0000000000000000  0.0000000000000000
  3.1384325354140796  4.0600619920586372  5.6621672975264987
  0.8034759314001674  2.0878080079414780  4.7111572975264329
  1.5474240685998324  4.0600619920585217  2.8845927024735656
  3.8823774645859186  2.0878080079413621  3.8356027024735013
  1.8212470736224873  1.3618783659141345  2.2122871103416943
  4.1562048584189721  4.7859916340859323  3.1632971103416514
  2.8646051415810283  1.3618783659140681  6.3344728896583486
  5.1995629263775127  4.7859916340858657  7.2854828896583061
  2.3429249999999997  0.0000000000000000  4.2733799999999995
  1.1674800000000001  3.0739350000000001  0.4755050000000000
  3.5024350000000002  3.0739350000000001  1.4265150000000000
  0.0079700000000000  0.0000000000000000  3.3223699999999998
