Ca Sn 
 1.0000000000000000
     4.9591373037811559   -0.0000000000000000    0.0000000000000003
     0.0000000000000008    4.9591373037811559    0.0000000000000003
    -0.0000000000000000   -0.0000000000000000    4.9591373037811559
 Ca  Sn 
   3   1
Cartesian
  0.0000000000000000  2.4795699999999998  2.4795699999999998
  2.4795699999999998  0.0000000000000000  2.4795699999999998
  2.4795699999999998  2.4795699999999998  0.0000000000000000
  0.0000000000000000  0.0000000000000000  0.0000000000000000
