Fe Ni  P  O 
 1.0000000000000000
     4.7924806762803236   -0.0000000000000000    0.0000000000000003
     0.0000000000000009    5.9563263867266070    0.1032833746924403
     0.0000000000000000    0.0570902515881455   10.1938897644144735
 Fe  Ni  P   O  
   4   2   4  16
Cartesian
  0.0808096297867034  1.4483712007694998  4.8413909145504137
  2.4770496297867064  4.5650487992305013  5.4557790854495840
 -0.0034931619673713  3.0489042147625187  7.6995824924588039
  2.3927468380326284  2.9645157852374848  2.5975875075411956
  4.7271370670008253  4.5159147669012496  0.3364310164144671
  2.3308970670008273  1.4975052330987486  9.9607389835855287
  0.3454061709236682  4.4645425912031271  3.5882630530065316
  2.7416461709236675  1.5488774087968737  6.7089069469934710
  2.0481792096660159  4.5172014657191077  8.7406378491613061
  4.4444192096660169  1.4962185342809335  1.5565321508386940
  1.3220633276011151  3.2445245038456805  9.3776359832886431
  3.3142655116423256  1.5767270379624776  8.1440084662192298
  0.9180255116423260  4.4366929620375215  2.1531615337807670
  1.0341738293935849  3.2073342161678102  4.2899161169831173
  3.4304138293935842  2.8060857838321929  6.0072538830168822
  3.7183033276011153  2.7688954961543195  0.9195340167113581
  0.9163368966575989  5.6374841208035802  4.4309054762538356
  1.2062540740068786  1.6296705645002028  6.6589443905666705
  3.8742830363393410  0.3102228573370913  0.7620482326469062
  1.4780430363393400  5.7031971426629084  9.5351217673530932
  3.6024940740068789  4.3837494354997952  3.6382256094333347
  3.9047680278993617  1.5286802528310870  3.0273985188364705
  1.1922211735299109  1.5977825177323535  1.5436551892207484
  3.5884611735299106  4.4156374822676439  8.7535148107792526
  3.3125768966576001  0.3759358791964218  5.8662645237461613
  1.5085280278993589  4.4847397471689137  7.2697714811635317
