Na Zr  F 
 1.0000000000000000
     4.3091923535838053   -0.0000000000000000   -0.0000000000000000
     0.0000000000000000    4.3091923535838053    0.0000000000000000
     0.0000000000000000   -0.0000000000000000    4.3091923535838053
 Na  Zr  F  
   1   1   3
Cartesian
  0.0000000000000000  0.0000000000000000  0.0000000000000000
  2.1545924375296166  2.1545924375296166  2.1545924375296166
  0.0000000000000000  2.1545924375296166  2.1545924375296166
  2.1545924375296166  0.0000000000000000  2.1545924375296166
  2.1545924375296166  2.1545924375296166  0.0000000000000000
