Li Zr Pt 
 1.0000000000000000
    -0.0000000000000000    3.2115453110336643    3.2115453110336643
     3.2115453110336643   -0.0000000000000000    3.2115453110336643
     3.2115453110336643    3.2115453110336643    0.0000000000000000
 Li  Zr  Pt 
   1   1   2
Cartesian
  1.6057750000000000  1.6057750000000000  1.6057750000000000
  4.8173250000000003  4.8173250000000003  4.8173250000000003
  0.0000000000000000  0.0000000000000000  0.0000000000000000
  3.2115564230999838  3.2115564230999838  3.2115564230999838
