Na Si Sn  B  O 
 1.0000000000000000
     0.0000000000000000    5.3121962300263865    0.0250746199265288
     6.7320750325247793    0.0000000000000000    0.0000000000000000
     0.0000000000000000   -0.2137317272187902   -9.0634158237959959
 Na  Si  Sn  B   O  
   6   2   2   2  14
Cartesian
  5.0490599999999999  1.2180938544246733 -0.7278486580850517
  6.6864503554356816  3.9131712831346537 -2.2302652619492753
  3.4116696445643178  3.9131712831346537 -2.2302652619492753
  3.3204103554356879  1.1852987168653468 -6.8080847380507263
  0.0456296445643138  1.1852987168653468 -6.8080847380507263
  1.6830200000000000  3.8803761455753265 -8.3105013419149518
  5.0490599999999999  1.4167083897284831 -3.8347202376864793
  1.6830200000000000  3.6817616102715154 -5.2036297623135228
  5.0490599999999999  4.0214607605686217 -5.9605390232882440
  1.6830200000000000  1.0770092394313784 -3.0778109767117585
  1.6830200000000000  1.4723065222275979 -0.5374266420329021
  5.0490599999999999  3.6261634777724048 -8.5009233579670997
  5.0490599999999999  2.6035974917032170 -7.5095927591917739
  0.3936713876773876  4.0741276182189825 -6.1421884822483594
  2.9723686123226121  4.0741276182189825 -6.1421884822483594
  1.6830200000000000  2.0439258706936498 -4.8971037527743473
  5.0490599999999999  0.6364018316599876 -5.2731654871841602
  1.6830200000000000  4.4620681683400134 -3.7651845128158388
  5.0490599999999999  3.5865619776312965 -0.7528669324746712
  3.7597113876773873  1.0243423817810160 -2.8961615177516444
  6.3384086123226124  1.0243423817810160 -2.8961615177516444
  1.6830200000000000  2.4948725082967802 -1.5287572408082311
  1.6830200000000000  0.1882484537872489 -1.1201737935832656
  5.0490599999999999  4.9102215462127523 -7.9181762064167325
  5.0490599999999999  3.0545441293063518 -4.1412462472256548
  1.6830200000000000  1.5119080223687043 -8.2854830675253304
