Fe Cu Te 
 1.0000000000000000
     3.8892884006058819    0.0000000000000000    0.0000000000000002
     0.0000000000000006    3.8892884006058819    0.0000000000000002
     0.0000000000000000    0.0000000000000000    6.2037489326436903
 Fe  Cu  Te 
   1   1   2
Cartesian
  0.0000000000000000  0.0000000000000000  0.0000000000000000
  1.9446450000000000  1.9446450000000000  0.0000000000000000
  0.0000000000000000  1.9446450000000000  1.7289210046549819
  1.9446450000000000  0.0000000000000000  4.4748289953450167
