Ba Li Cd 
 1.0000000000000000
     0.0000000000000000    4.1678473643179315    4.1678473643179315
     4.1678473643179315   -0.0000000000000000    4.1678473643179315
     4.1678473643179315    4.1678473643179315    0.0000000000000000
 Ba  Li  Cd 
   1   4   1
Cartesian
  2.0839249999999998  2.0839249999999998  2.0839249999999998
  5.2393020183354739  3.0963979816645240  3.0963979816645240
  5.2393020183354739  5.2393020183354739  5.2393020183354739
  3.0963979816645240  5.2393020183354739  3.0963979816645240
  3.0963979816645240  3.0963979816645240  5.2393020183354739
  0.0000000000000000  0.0000000000000000  0.0000000000000000
