Sr Zn As 
 1.0000000000000000
     4.3738631666996879    0.0000000003805994    0.0000000000000003
    -2.1869317945751710    3.7878764930879743    0.0000000000000003
    -0.0000000000000000   -0.0000000000000000    8.4115084729331251
 Sr  Zn  As 
   2   1   2
Cartesian
  0.0000000000000000  0.0000000000000000  5.9630553341661070
  0.0000000000000000  0.0000000000000000  2.4484546658338924
  2.1869299999999843  1.2626266666666757  0.0000000000000000
  2.1869299999999843  1.2626266666666757  4.2057549999999999
  0.0000000000000156  2.5252533333333242  0.0000000000000000
