Cr  F 
 1.0000000000000000
     5.2036572275126485    0.6924580784335592   -0.2316232630797351
     2.3753873941550254    4.6829437560730787   -0.2213162966483681
     2.4400832490956175    1.7166194172881661    6.4317470535634813
 Cr  F  
   2  10
Cartesian
  0.0108582521979189  0.0036882881171144  0.0072498041779658
  1.2308747393438859  0.8620121224821092  3.2230963382397588
  6.6291428729349224  2.5687654605391135  4.6008240823114690
  3.4115685030207676  4.5305019938217495  1.3924242183977034
  8.1603514998098277  4.8997718675698110  3.6873417174200309
  3.9259840200964291  1.8931188702392021  5.5186460397000001
  4.8993639830681976  4.6649642726045215  6.0152787816073534
  5.2227882077769161  4.9000811794249790  3.1993429774883730
  5.1415278832281990  2.4344446110943521 -0.0220109445560123
  4.8180408021799455  2.1993315854432689  2.7936983833180657
  6.1148495487279941  5.2063447087162187  0.4746445535281725
  1.8804557177849672  2.1995601262275599  2.3057828997069958
