Sr Pd  O 
 1.0000000000000000
     3.4240399631947018    0.0000000022209256   -0.9008853296927694
    -0.3030213169429946    3.8394096126985868   -1.1517071658478446
     0.0041129731427288   -0.0122480349444928    6.9730385076530537
 Sr  Pd  O  
   2   1   3
Cartesian
  2.0210903483440030  2.4812070896858431  0.7242538601776806
  1.1040396516559969  1.3459529103141576  4.1961861398223190
  0.0000000000000000  0.0000000000000000  0.0000000000000000
  2.6224476743690852  3.2143757052632131  3.0098667661089480
  0.5026823256309140  0.6127842947367874  1.9105732338910510
 -0.1515100000000000  1.9197050000000000 -0.5758550000000000
