Mg Sn 
 1.0000000000000000
     4.6257609367656780   -0.0000000000000000    0.0000000000000000
     0.0000000000000000    4.6257609367656780    0.0000000000000000
     0.0000000000000000    0.0000000000000000    9.8542938907880728
 Mg  Sn 
   2   6
Cartesian
  0.0000000000000000  0.0000000000000000  0.0000000000000000
  2.3128799999999998  2.3128799999999998  4.9271450000000003
  2.3128799999999998  2.3128799999999998  0.0000000000000000
  2.3128799999999998  0.0000000000000000  2.4635725000000002
  0.0000000000000000  2.3128799999999998  2.4635725000000002
  0.0000000000000000  0.0000000000000000  4.9271450000000003
  0.0000000000000000  2.3128799999999998  7.3907175000000009
  2.3128799999999998  0.0000000000000000  7.3907175000000009
