Ca La  B  O 
 1.0000000000000000
    10.5492370825448081    0.0000000000000000   -0.0000000000000000
    -5.2746185412724040    9.1359072965923254    0.0000000000000000
    -0.0000000000000000    0.0000000000000000    6.3951504032203257
 Ca  La  B   O  
   6   6  10  30
Cartesian
  3.0615775524440765  4.3230040098465627  1.6742050484709565
 -2.2130425530483322  4.8129059901534381  4.8717800484709564
 -0.0000000527462041  8.6460081110522324  4.8717800484709564
  5.2746200527462044  0.4899018889477673  1.6742050484709565
  7.4876625530483283  4.3230040098465627  1.6742050484709565
  2.2130424475559214  4.8129059901534381  4.8717800484709564
  8.0762040711678100  1.4278079856986392  3.7144517012470195
 -0.0000000527462050  2.8556160627563867  0.5168767012470210
  5.2746200527461999  6.2802939372436128  3.7144517012470195
  2.4730360343245952  1.4278079856986392  3.7144517012470195
 -2.8015840711678104  7.7081020143013577  0.5168767012470210
  2.8015839656754022  7.7081020143013577  0.5168767012470210
  0.0000000000000000  0.0000000000000000  4.7849527522871282
 -2.1246755998708560  7.3172887189355942  3.4991625270612023
 -0.0000000527461670  6.0906066971196813  0.6315270937754970
  5.2746200527461662  3.0453033028803196  3.8291020937754969
  0.0000000000000000  0.0000000000000000  1.5873777522871271
  7.3992955998708565  1.8186212810644109  0.3015875270612005
  2.1246755998709204  7.3172887189355942  3.4991625270612023
  0.0000000000000377  3.6372425621287565  3.4991625270612023
  5.2746199999999703  5.4986674378712399  0.3015875270612005
  3.1499444001290717  1.8186212810644109  0.3015875270612005
 -4.0777535873693393  8.4448988416722290  4.7398251211752145
  1.1968664126307373  0.6910111583277758  1.5422501211752144
  5.2746200000000432  7.7538876833443835  1.5422501211752144
 -0.0000000000000375  1.3820223166556165  4.7398251211752145
  5.2746199999999579  1.6472578612167572  3.8240764332169985
  9.3523735873693390  0.6910111583277758  1.5422501211752144
 -1.2107428720513995  5.3915839306083431  0.6265014332170009
  2.3490428971371990  2.7549170355063595  6.0467307610169296
  4.0777535873692630  8.4448988416722290  4.7398251211752145
  0.0000000000000370  7.4886521387832428  0.6265014332170009
  6.9888904575979618  0.6568723434638143  6.0467307610169296
 -1.2113066452648342  3.4117893789701688  2.8491557610169305
  6.4853628720513994  3.7443260693916538  3.8240764332169985
  1.2107428720514783  5.3915839306083431  0.6265014332170009
 -1.6821885402053534  7.0618186911883409  4.7672130624081666
  3.5924314597946463  2.0740913088116599  1.5696380624081658
  5.2746199999999988  4.9877273823766810  1.5696380624081658
  6.9568085402053548  2.0740913088116599  1.5696380624081658
 -0.0000000000000006  4.1481826176233207  4.7672130624081666
  6.4859266452648336  5.7241206210298303  6.0467307610169296
  1.6821885402053556  7.0618186911883409  4.7672130624081666
  4.0633133547351648  5.7241206210298303  6.0467307610169296
  8.2001971028627967  2.7549170355063595  6.0467307610169296
  4.0638771279485164  3.7443260693916538  3.8240764332169985
  1.2113066452648369  3.4117893789701688  2.8491557610169305
  3.5603495424020339  0.6568723434638143  6.0467307610169296
 -1.7142704575979615  8.4790376565361871  2.8491557610169305
  2.9255771028627948  6.3809929644936467  2.8491557610169305
  1.7142704575979606  8.4790376565361871  2.8491557610169305
 -2.9255771028627988  6.3809929644936467  2.8491557610169305
