Cr Te 
 1.0000000000000000
     0.0000000015502242    3.9942325955375546   -0.0000000003660930
     0.0245863249764829   -0.0000000006279050    6.9480189427420109
     6.2049590273026132   -1.9971157975714207   -3.3400922243560034
 Cr  Te 
   3   4
Cartesian
  0.0000000000000000  0.0000000000000000  0.0000000000000000
  3.0042685245644383  1.9971125934174188  3.3988990808463888
  3.2252814754355619 -0.0000025934174189  0.2090309191536118
  1.6703662233619485  1.9971136732744201  5.8706003322139484
  4.5591837766380507 -0.0000036732744203 -2.2626703322139488
  4.7328857769627701  1.9971111970518254  1.2610506417977756
  1.4966642230372287 -0.0000011970518251  2.3468793582022269
