Nd Tl Cd 
 1.0000000000000000
     5.0212195581461527   -0.0000000017198229    0.0000000000000000
    -2.5106092822009223    4.3485479759907593   -0.0000000000000000
    -0.0000000000000000   -0.0000000000000000    7.3991641794338028
 Nd  Tl  Cd 
   2   2   2
Cartesian
  0.0000000000000000  0.0000000000000000  3.6995800000000001
  0.0000000000000000  0.0000000000000000  0.0000000000000000
 -0.0000025106099827  2.8990246839117511  5.5493699999999997
  2.5106125106099828  1.4495253160882491  1.8497900000000000
 -0.0000000000000089  2.8990792522127284  1.8497900000000000
  2.5106100000000091  1.4494707477872726  5.5493699999999997
