Ni  S  O 
 1.0000000000000000
     4.7109966182099967    0.0084800560788665    0.0000000000000000
    -1.8538276962158702    4.3309225241600142   -0.0000000000000000
    -0.0000000000000000    0.0000000000000000    6.2866571653966608
 Ni  S   O  
   2   2   8
Cartesian
  0.0000000000000000  0.0000000000000000  3.1433300000000002
  0.0000000000000000  0.0000000000000000  0.0000000000000000
  2.3970074522905072  1.5320676554208195  1.5716650000000001
  0.4601625477094913  2.8073323445791818  4.7149950000000000
  0.5419696694169783  1.2921479920721544  4.7149950000000000
  2.3152003305829894  3.0472520079278476  1.5716650000000001
  0.9728146476388576  1.0084694249608044  1.5716650000000001
  1.8843553523611583  3.3309305750391665  4.7149950000000000
 -0.1935360079971984  3.2377430003286269  5.9455747926018319
  3.0507060079971988  1.1016569996713743  2.8022447926018308
  3.0507060079971988  1.1016569996713743  0.3410852073981683
 -0.1935360079971984  3.2377430003286269  3.4844152073981682
