Sm Ag 
 1.0000000000000000
     4.4415320681008215    0.0000000000000000    0.0000000000000000
    -0.0000000000000000    4.4415320681008215    0.0000000000000000
     0.0000000000000000   -0.0000000000000000    4.4415320681008215
 Sm  Ag 
   1   3
Cartesian
  0.0000000000000000  0.0000000000000000  0.0000000000000000
  0.0000000000000000  2.2207650000000001  2.2207650000000001
  2.2207650000000001  0.0000000000000000  2.2207650000000001
  2.2207650000000001  2.2207650000000001  0.0000000000000000
