Ho Co Ge 
 1.0000000000000000
     3.7095185067623859   -0.0000000001367524   -1.3611314869885260
    -0.4994391748120784    3.6757429447078773   -1.3611314851029102
     0.0069957421870337    0.0080102093789870    5.7544431232461903
 Ho  Co  Ge 
   1   2   2
Cartesian
  0.0000000000000000  0.0000000000000000  0.0000000000000000
  0.5562999999999999  2.7608099999999998  1.5160899999999999
  2.6607799999999999  0.9229400000000000  1.5160899999999999
  2.0161692841661818  2.3086370548178126 -0.2406691919215982
  1.2009107158338188  1.3751129451821891  3.2728491919215976
