Ti Cd Cu  S 
 1.0000000000000000
     3.9095982703280776   -3.9095982703280776   -0.0000000000000000
     3.9095982703280776    3.9095982703280776    0.0000000000000000
    -3.9095982703280776    0.0000000000000000    5.3355533537372759
 Ti  Cd  Cu  S  
   1   1   2   4
Cartesian
  3.9096000000000002  0.0000000000000000  0.0000000000000000
  0.0000000000000000  0.0000000000000000  0.0000000000000000
  1.9548000000000001 -1.9547999999999999  2.6677749999999998
  1.9548000000000001  1.9548000000000001  2.6677749999999998
  2.1097485573078676 -0.0000000000000001  1.4268716000446096
  5.7094514426921901  0.0000000000000000  1.4268716000446096
 -0.0000000000000276 -1.7998514426921617  3.9086783999553907
 -0.0000000000000280  1.7998514426921615  3.9086783999553907
