Mg In Hg 
 1.0000000000000000
    -0.0000000000000000    3.5397660200793419    3.5397660200793419
     3.5397660200793419   -0.0000000000000000    3.5397660200793419
     3.5397660200793419    3.5397660200793419   -0.0000000000000000
 Mg  In  Hg 
   2   1   1
Cartesian
  0.0000000000000000  0.0000000000000000  0.0000000000000000
  3.5397699999999999  3.5397699999999999  3.5397699999999999
  5.3096549999999993  5.3096549999999993  5.3096549999999993
  1.7698849999999999  1.7698849999999999  1.7698849999999999
