Be Fe 
 1.0000000000000000
     2.0844595789354425   -3.6103889030514926   -0.0000000000000000
     2.0844595789354425    3.6103889030514926    0.0000000000000000
    -0.0000000000000000    0.0000000000000000    6.7881222859304984
 Be  Fe 
   8   4
Cartesian
  0.0000000000000000  0.0000000000000000  0.0000000000000000
  0.0000000000000000  0.0000000000000000  3.3940600000000001
  2.0844600000000000 -2.3812197054914073  5.0910900000000003
  1.0644928852944109  0.6145851472542706  1.6970300000000000
  3.1044271147055746  0.6145851472542957  1.6970300000000000
  1.0644928852944109 -0.6145851472542706  5.0910900000000003
  3.1044271147055746 -0.6145851472542958  5.0910900000000003
  2.0844600000000000  2.3812197054914073  1.6970300000000000
  2.0844600000000000  1.2034657402599769  6.3698656565904637
  2.0844600000000000 -1.2034657402599769  2.9758056565904636
  2.0844600000000000 -1.2034657402599769  0.4182543434095363
  2.0844600000000000  1.2034657402599769  3.8123143434095366
