Fe  F 
 1.0000000000000000
     4.8213815313989246    0.0000000649465006   -0.0000000000000003
    -2.4106911457262283    4.1754388118951953    0.0000000000000003
    -0.0000000000000002    0.0000000000000002    6.7160103717856714
 Fe  F  
   3   9
Cartesian
  2.4106924106899772  1.3918119415200134  2.2806991308936246
 -0.0000024106899767  2.7836280584799868  4.4353108691063721
  0.0000000000000000  0.0000000000000000  0.0000000000000000
  0.9392726200067789  3.9390840407472725  5.5314309851114674
 -1.4702911637621154  3.0193324059894873  5.5314309851114674
  0.5310185437553371  1.3924635532632397  5.5314309851114674
  1.5140764603070807  2.6224588881771953  3.3580049999999999
  1.7932270777834682  0.0000000009251280  3.3580049999999999
 -0.8966135380905504  1.5529811108976763  3.3580049999999999
  2.9417085439904991  2.7829764450740493  1.1845790148885298
  0.9403988346803570  1.1561075946382120  1.1845790148885298
  3.3499626213291451  0.2363559602877374  1.1845790148885298
