Li Ag  F 
 1.0000000000000000
     5.7099102096079228    0.0000009958201467    0.0000019932085858
    -2.8549561089579236    6.6758495362023682   -0.0618588516404702
    -0.0000020070683868    2.4894805398349003    5.1386332756351258
 Li  Ag  F  
   2   4   8
Cartesian
  1.4274762499999998  3.8472575000000000  4.4808362500000003
  1.4274737499999999  5.3180724999999995  0.5959337500000000
 -1.4274800000000001  3.3379249999999998 -0.0309300000000000
 -1.4274800000000001  4.5826649999999995  2.5383849999999999
  0.0000000000000000  1.2447400000000000  2.5693150000000000
  2.8549549999999999  1.2447400000000000  2.5693150000000000
 -0.2089679821647667  1.5495924474294474  0.4257883157503889
 -0.2089652690490692  6.0495163942445256  1.4180852437061249
  0.3686755909454154  3.4035938615861068  2.8774037580751353
  0.3686735877397422  6.8242624042510425  4.3925669687494215
  2.4862764122602572  2.3410675957489593  0.6842030312505785
  2.4862744090545852  5.7617361384138945  2.1993662419248667
  3.0639152690490676  3.1158136057554762  3.6586847562938747
  3.0639179821647682  7.6157375525705504  4.6509816842496106
