Mg Ti  P  O 
 1.0000000000000000
     7.4066776506088017   -0.0598840412781902    0.0000000000000000
    -3.7494942255324650    6.4352325493699407    0.0000000000000000
     0.0000000000000000    0.0000000000000000    7.4217342092793732
 Mg  Ti  P   O  
   2   4   4  20
Cartesian
  0.0000000000000000  0.0000000000000000  0.0000000000000000
  1.8285949999999997  3.1876750000000000  3.7108650000000001
 -0.9124052403913055  1.8780332728815390  5.3609439556752889
  4.5695952403913083  4.4973167271184566  2.0607860443247090
  0.9161897596086912  5.0657082728815421  5.7716510443247113
  2.7410002403913043  1.3096417271184606  1.6500789556752884
  1.8286035302903341  6.3540592720355944  2.7940779101184745
  0.0000085302903328  3.1663842720355957  0.9167870898815248
  1.8285864697096672  0.0212907279644049  4.6276520898815230
  3.6571814697096650  3.2089657279644048  6.5049429101184773
 -0.4532010157735867  2.0145600958280143  7.4069346003073928
 -0.7396547114984739  5.9450379091858538  5.4674542422140746
  4.1103910157735930  4.3607899041719822  0.0147953996926079
  1.7055675989221912 -0.0339927212250037  1.1972926048918460
  4.8384302885015273  2.6974829091858519  5.6651407577859256
  6.1452390507286045  1.0833393932990802  3.6344942274563481
  3.5341625989221948  3.1536822787749963  2.5135723951081523
  3.0900359492713947  2.0444556067009199  7.3453592274563464
  5.7011124010778049 -0.0258872787749962  6.2244373951081524
  4.3968447114984714  0.4303120908141479  1.9542757577859260
  1.3753939842264067  5.2022350958280175  3.7256603996926074
  2.8993602060356465  5.8154038686904297  1.8288011649055942
  2.2817960157735864  1.1731149041719851  3.6960696003073918
  1.0707652060356485  2.6277288686904314  1.8820638350944066
 -2.4880490507286024  5.2920106067009201  3.7872357725436543
  0.7578297939643512  0.5599461313095687  5.5929288350944093
  2.5864247939643525  3.7476211313095704  5.5396661649055909
 -1.1812402885015267  3.6778670908141460  1.7565892422140739
  0.1230274010778073  3.2216677212250038  4.9081576048918478
  0.5671540507286015  4.3308943932990793  0.0763707725436536
