Dy  B Mo 
 1.0000000000000000
     8.1682492813820922    0.0074014694153897    0.0000000000000005
    -7.4276859177055714    3.3985045258858881    0.0000000000000005
    -0.0000000000000000    0.0000000000000000    9.4568795487103294
 Dy  B   Mo 
   6  14   2
Cartesian
 -3.4348621673406279  2.5303203030191708  2.3642200000000000
  4.1754221673406278  0.8755796969808296  7.0926600000000004
  2.0321807490560517  1.3415949531016418  0.5746895172974933
 -1.2916207490560516  2.0643050468983577  8.8821904827025069
 -1.2916207490560516  2.0643050468983577  5.3031295172974930
  2.0321807490560517  1.3415949531016418  4.1537504827025069
  7.4903517673806865  0.1547986625131642  7.0926600000000004
 -6.7497917673806800  3.2511013374868605  2.3642200000000000
  6.0651069163398326  0.4646964829949329  3.3365493444820724
 -5.3245469163398322  2.9412035170050670  6.1203306555179253
 -5.3245469163398322  2.9412035170050670  8.0649893444820737
  6.0651069163398326  0.4646964829949329  1.3918906555179265
  4.6249076323908982  0.7778459175143803  4.4143066702523432
  4.6249076323908982  0.7778459175143803  0.3141333297476552
 -3.8843476323908983  2.6280540824856193  9.1427466702523468
  7.8583095235886722  0.0747918436181762  3.8569913956155601
 -7.1177495235886710  3.3311081563818239  5.5998886043844394
 -7.1177495235886710  3.3311081563818239  8.5854313956155597
  7.8583095235886722  0.0747918436181762  0.8714486043844399
 -3.8843476323908983  2.6280540824856193  5.0425733297476540
 -0.4692775222438839  1.8854990168390771  2.3642200000000000
  1.2098375222438844  1.5204009831609231  7.0926600000000004
