Be2 Ni1 Ru1
1.0
   2.7057393284705085    0.0000000000000000    0.0000000000000000
   0.0000000000000000    2.7057393284705085   -0.0000000000000000
   0.0000000000000000   -0.0000000000000000    5.4338082938796832
Be Ni Ru
2 1 1
direct
   0.0000000000000000    0.0000000000000000    0.7682747152136061 Be
   0.0000000000000000    0.0000000000000000    0.2317255987688211 Be
   0.5000001240935305    0.5000001240935305    0.0000000000000000 Ni
   0.5000001240935305    0.5000001240935305    0.5000001569912136 Ru
