Lu2 Ga4 Pd2
1.0
   4.3706999028504097    0.0000000021627766   -0.0000000000000000
  -2.1853504456483801    4.9933822673649031    0.0000000000000000
   0.0000000000000000   -0.0000000000000000    6.5519382761812022
Lu Ga Pd
2 4 2
direct
   0.4117051179237046    0.8234110496308705    0.2500000657751464 Lu
   0.5882947790128670    0.1765884958620325    0.7500001973254392 Lu
   0.1262856878945991    0.2525703186701709    0.4487916132749854 Ga
   0.8737142090419726    0.7474292268227316    0.5512086498256005 Ga
   0.1262856878945991    0.2525703186701709    0.0512085182753074 Ga
   0.8737142090419726    0.7474292268227316    0.9487917448252779 Ga
   0.6999233289408630    0.3998465452277849    0.2500000657751464 Pd
   0.3000765679957085    0.6001530002651178    0.7500001973254392 Pd
