Fe2 Sb4
1.0
  -0.0000000000000000    0.0000000117036760   -5.6442912882924396
  -3.2965978781995284    3.2965978840513674   -2.8221461460507737
   3.2965978781995284    3.2965978840513674   -2.8221461460507737
Fe Sb
2 4
direct
   0.7499998301461008   -0.0000000013313354   -0.0000000013313354 Fe
   0.2499999433820336   -0.0000000004437785   -0.0000000004437785 Fe
   0.3372505072206466    0.5000003200415805    0.8254993216772868 Sb
   0.6627499900587146    0.5000003200415798    0.1745013184058734 Sb
   0.8372503939847137    0.8254993207897299    0.5000003191540235 Sb
   0.1627501032946471    0.1745013192934303    0.5000003209291366 Sb
