In4 H20 N8 F8
1.0
   7.7372356569522660    0.0000000000000000   -0.7935177545382042
   0.0000000000000000    5.4107858357325842    0.0000000000000000
  -0.0551561019715710    0.0000000000000000    8.6666909391376290
In H N F
4 20 8 8
direct
   0.6394275001490596    0.5726310071672330    0.3546330571124033 In
   0.1394269677793675    0.9273701472678738    0.8546330837335531 In
   0.3605725547839266    0.4273697624561720    0.6453665804644824 In
   0.8605730871536182    0.0726306223555303    0.1453665538433317 In
   0.1101851176612137    0.3634369383051022    0.3376811015317583 H
   0.6101851451277069    0.1365634465066002    0.8376809203202000 H
   0.8898149372717721    0.6365638313183023    0.6623185360451278 H
   0.3898149098052790    0.8634373231168045    0.1623187172566842 H
   0.6915228043418731    0.2472180276725628    0.6791823380052597 H
   0.8084772780576061    0.7472184124842657    0.8208171183600681 H
   0.3084772505911131    0.7527827419508411    0.3208172995716258 H
   0.0625294788739707    0.4959272704803052    0.1663413067141992 H
   0.5625295063404642    0.0040731143313970    0.6663411255026411 H
   0.1915227768753796    0.2527823571391394    0.1791825192168169 H
   0.4374705485925222    0.9959276552920079    0.3336585120742442 H
   0.6834204564939818    0.4956773878009735    0.0633811184329522 H
   0.1834199241242904    0.0043229970107288    0.5633811450541023 H
   0.3165795984390038    0.5043233818224317    0.9366185191439330 H
   0.8165801308086962    0.9956777726126751    0.4366184925227830 H
   0.5427818057797694    0.2819683049944405    0.1038049984671454 H
   0.0427812734100778    0.2180320798172613    0.6038050250882961 H
   0.4572182491532158    0.7180324646289630    0.8961946391097392 H
   0.9572187815229085    0.7819686898061440    0.3961946124885894 H
   0.9374705760590148    0.5040734991430990    0.8336583308626868 H
   0.0834067651346813    0.3267205473526038    0.2211502179411171 N
   0.5834067926011747    0.1732798374590988    0.7211500367295586 N
   0.9165932897983045    0.6732802222708018    0.7788494196357694 N
   0.4165932623318118    0.8267209321643051    0.2788496008473250 N
   0.1610187342171110    0.1403115703969289    0.6425703973772189 N
   0.3389807883461828    0.6403119552086308    0.8574292668208165 N
   0.8389813207158747    0.8596891992264760    0.3574292401996668 N
   0.6610192665868031    0.3596888144147732    0.1425703707560682 N
   0.1844629267352481    0.6559725870415396    0.4980179846823429 F
   0.5610035493512475    0.6941568410476486    0.5855922871591789 F
   0.0610035218847546    0.8058443133874581    0.0855924683707358 F
   0.4389965055817383    0.3058439285757556    0.4144073504177069 F
   0.9389965330482315    0.1941564562359467    0.9144071692061488 F
   0.8155371281977382    0.3440281825818653    0.5019816528945416 F
   0.3155371007312451    0.1559722022298373    0.0019818341060993 F
   0.6844629542017409    0.8440285673935672    0.9980178034707863 F
