Ti1 Be1 Ge2
1.0
  -1.8198426720349190    1.8198426720349190    4.3230348131854681
   1.8198426720349190   -1.8198426720349190    4.3230348131854681
   1.8198426720349190    1.8198426720349190   -4.3230348131854681
Ti Be Ge
1 1 2
direct
   0.4999994433094255    0.4999994433094255    0.0000000000000000 Ti
   0.7499989875157237    0.2499997216547128    0.4999992658610110 Be
   0.0000000000000000    0.0000000000000000    0.0000000000000000 Ge
   0.2499997216547130    0.7499989875157237    0.4999992658610110 Ge
