Dy1 Mg2 Cd1
1.0
   0.0000000000000000    3.5726417745914447    3.5726417745914447
   3.5726417745914447    0.0000000000000000    3.5726417745914447
   3.5726417745914447    3.5726417745914447    0.0000000000000000
Dy Mg Cd
1 2 1
direct
   0.7499996274623465    0.7499996274623465    0.7499996274623465 Dy
   0.0000000000000000    0.0000000000000000    0.0000000000000000 Mg
   0.4999997516415643    0.4999997516415643    0.4999997516415643 Mg
   0.2499998758207822    0.2499998758207821    0.2499998758207821 Cd
