Ta4 F20
1.0
   4.9526657413451618   -0.0457519026601830   -0.3691307791011541
  -0.8666451658947827    7.8937024375065512   -3.3531279156208900
  -0.0473702803144927   -0.0190639843390246    8.6198875516610070
Ta F
4 20
direct
   0.4999996596549554    0.7955946510906893    0.2044052115514596 Ta
   0.7591480183951258    0.7385503545882363    0.7385502551382720 Ta
   0.2408520015351727    0.2614500832539321    0.2614500486428046 Ta
   0.5000003602753431    0.2044057867514788    0.7955950922296160 Ta
   0.8587390008817567    0.7268271099611590    0.5316464033366116 F
   0.9209876953569507    0.1280149708807249    0.1280149365281050 F
   0.3734552539463357    0.4113962956274508    0.8312377425793804 F
   0.3793220280415318    0.2185639764669793    0.0268123285899367 F
   0.1583085431660304    0.6999119540303422    0.0742549538020759 F
   0.6206779918887675    0.7814364613751879    0.9731879751911393 F
   0.3734547564251109    0.8312374596338212    0.4113958568108069 F
   0.6265447659839621    0.5886041422147168    0.1687625612016951 F
   0.8416907352909078    0.9257448993084130    0.3000878589201413 F
   0.6206777646153047    0.9731879224117225    0.7814361844845106 F
   0.8416914767642685    0.3000884838118247    0.9257453499790000 F
   0.0790123245733482    0.8719854669614431    0.8719853672529717 F
   0.8587392322476245    0.5316466604212543    0.7268271884062666 F
   0.3907684080420387    0.6512565406797383    0.6512564590011856 F
   0.3793222553149942    0.0268125154304454    0.2185641192965655 F
   0.1412607876826741    0.4683537774209129    0.2731731153748099 F
   0.6092316118882596    0.3487438971624295    0.3487438447798909 F
   0.1412610190485419    0.2731733278810087    0.4683539004444645 F
   0.6265452635051879    0.1687629782083454    0.5886044469702695 F
   0.1583092846393905    0.0742555385337549    0.6999124448609356 F
