Ba2 B2 Cl2 F8
1.0
   4.6447765124409770   -0.0000000000000000    0.0000000000000003
   0.0000000000000008    5.2770151635653004    0.0000000000000003
  -0.0000000000000000   -0.0000000000000000    9.3628649615966264
Ba B Cl F
2 2 2 8
direct
   0.4721871759610590    0.5000004582547662    0.2975138826708719 Ba
   0.9721875513891353    0.0000000000000000    0.7024855874062209 Ba
   0.8878091190587052    0.0000000000000000    0.1314138647543741 B
   0.3878087436306290    0.5000004582547662    0.8685856053227174 B
   0.4732735813454420    0.0000000000000000    0.4749591018623925 Cl
   0.9732739567735179    0.5000004582547662    0.5250403682146998 Cl
   0.5839988748643488    0.0000000000000000    0.1355489986849722 F
   0.0839984994362728    0.5000004582547662    0.8644504713921203 F
   0.9868254523221056    0.7784601691409578    0.2044902317192344 F
   0.9868254523221057    0.2215407473685750    0.2044902317192344 F
   0.4868250768940288    0.7215412056233408    0.7955092383578577 F
   0.4868250768940289    0.2784597108861911    0.7955092383578577 F
   0.9917853857604015    0.0000000000000000    0.9911308997784656 F
   0.4917850103323256    0.5000004582547662    0.0088685702986259 F
