Mg1 Te1 O2
1.0
   2.9325515740985439   -0.0000000000000000    0.0000000000000000
   0.0000000000000000    2.9325515740985439    0.0000000000000000
   0.0000000000000000   -0.0000000000000000    6.2965320359103059
Mg Te O
1 1 2
direct
   0.5000003596668752    0.5000003596668752    0.5593064308620188 Mg
   0.0000000000000000    0.0000000000000000    0.1045647310771067 Te
   0.0000000000000000    0.0000000000000000    0.4776576592105769 O
   0.5000003596668752    0.5000003596668752    0.8684709634455361 O
