La1 Y3 Ti4 O14
1.0
   6.2592100892239513    0.0000361305433820    3.6021546960527275
   2.0830642648978435    5.9024193523210409    3.6021546960527280
   0.0000510635501200    0.0000361292758529    7.2217189474075427
La Y Ti O
1 3 4 14
direct
   0.4999993307572745    0.5000007105519615    0.4999994020040398 La
  -0.0000005530306954    0.5000003827629732    0.4999998326714916 Y
   0.4999995248392710    0.5000003826577966   -0.0000006041280319 Y
   0.4999996897059734    0.0000006556831531    0.4999995754646198 Y
   0.0000000000000000    0.0000000000000000    0.0000000000000000 Ti
   0.4999998837879698    0.0000003277889882   -0.0000004306674518 Ti
  -0.0000001940819965    0.0000003278941649    0.5000000061320717 Ti
  -0.0000003589486989    0.5000000548688083   -0.0000001734605801 Ti
   0.6719894711962138    0.0732884544510486    0.6719893448461666 O
   0.0781611518696753    0.6720086674816463    0.0781613833101576 O
   0.0781613476807975    0.0781621833227019    0.6720084050406163 O
   0.6719892737841801    0.6719905031837444    0.0732867541462391 O
   0.6720082485958773    0.0781621831977920    0.0781610778271978 O
   0.0732868048877574    0.6719905033095444    0.6719896528268968 O
   0.3280093877303687    0.3280109179201782    0.9267120498618404 O
   0.9218375096448734    0.3279927536222764    0.9218374206979221 O
   0.9218373138337516    0.9218392377812211    0.3279903989674633 O
   0.3688966868305403    0.3688977048352800    0.3688967393954626 O
   0.3279904129186716    0.9218392379061308    0.9218377261808818 O
   0.9267118566267917    0.3280109177943784    0.3280091511811826 O
   0.3280091903183350    0.9267129666528743    0.3280094591619129 O
   0.6311019746840083    0.6311037162686426    0.6311020646126172 O
