Ba2 Ru1 O4
1.0
   3.9970639877486276    0.0000000000000000    0.0000000000000000
  -0.0000000000000000    3.9970639877486276   -0.0000000000000000
  -1.9985319938743138   -1.9985319938743138    6.7847012239406785
Ba Ru O
2 1 4
direct
   0.3540648966360840    0.3540648966360840    0.7081297932721607 Ba
   0.6459345143306227    0.6459345143306227    0.2918700263307021 Ba
   0.0000000000000000    0.0000000000000000    0.0000000000000000 Ru
   0.1540859145066851    0.1540859145066851    0.3081718290133772 O
   0.8459134964600218    0.8459134964600218    0.6918279905894854 O
   0.0000000000000000    0.4999995011652753    0.0000000000000000 O
   0.4999995011652753    0.0000000000000000    0.0000000000000000 O
