Y1 Zn2 In2
1.0
  -2.1711612640894913    2.1711612640894913    5.7381926276489796
   2.1711612640894913   -2.1711612640894913    5.7381926276489796
   2.1711612640894913    2.1711612640894913   -5.7381926276489796
Y Zn In
1 2 2
direct
   0.0000000000000000    0.0000000000000000    0.0000000000000000 Y
   0.3981804591840598    0.3981804591840598    0.0000000000000000 Zn
   0.6018190828931846    0.6018190828931846   -0.0000000000000000 Zn
   0.7499995944102368    0.2499998855193112    0.4999997088909257 In
   0.2499998855193112    0.7499995944102369    0.4999997088909258 In
