Li6 Sc2
1.0
   6.1781495074731216   -0.0000000017164203    0.0000000000000004
  -3.0890745843326863    5.3504345196554111    0.0000000000000004
  -0.0000000000000000   -0.0000000000000000    4.9571594196572510
Li Sc
6 2
direct
   0.1631545240117357    0.3263075377532053    0.2500000292679083 Li
   0.6736925079797491    0.8368448866390802    0.2500000292679082 Li
   0.1631546872098826    0.8368448864757698    0.2500000292679082 Li
   0.8368458755296577    0.6736916178407986    0.7500000878037247 Li
   0.3263078915616442    0.1631542689549238    0.7500000878037248 Li
   0.8368457123315108    0.1631542691182341    0.7500000878037247 Li
   0.3333335730672057    0.6666661036224002    0.7500000878037247 Sc
   0.6666668264741878    0.3333330519716038    0.2500000292679082 Sc
