Ta6 Al2 C4
1.0
   1.5546850282591125   -2.6927931612910312    0.0000000000000000
   1.5546850282591125    2.6927931612910312   -0.0000000000000000
  -0.0000000000000000   -0.0000000000000000   19.2516010572297311
Ta Al C
6 2 4
direct
   0.3333347946184668    0.6666684032903037    0.8656795870594468 Ta
   0.6666684032903036    0.3333347946184670    0.3656796145176757 Ta
   0.3333347946184668    0.6666684032903037    0.6343203305658668 Ta
   0.6666684032903036    0.3333347946184670    0.1343203580240955 Ta
   0.0000000000000000    0.0000000000000000    0.4999999725417713 Ta
   0.0000000000000000    0.0000000000000000    0.0000000000000000 Ta
   0.0000000000000000    0.0000000000000000    0.7499999588126569 Al
   0.0000000000000000    0.0000000000000000    0.2499999862708856 Al
   0.6666684032903036    0.3333347946184670    0.5684655591376282 C
   0.6666684032903036    0.3333347946184670    0.9315343584876854 C
   0.3333347946184668    0.6666684032903037    0.4315343859459141 C
   0.3333347946184668    0.6666684032903037    0.0684655865958571 C
