Bi4 Sb4 O20
1.0
   5.3036895055601958    0.4704936883885094    0.0000000000000000
  -1.5910829514724110    7.8111015834167006    0.0000000000000000
   0.0000000000000000    0.0000000000000000    9.9690543131186118
Bi Sb O
4 4 20
direct
   0.1597275566678864    0.1182143066699117    0.1087882098155396 Bi
   0.8402728826431022    0.8817849919567671    0.8912113575337315 Bi
   0.6597277763233810    0.6182139559832517    0.3912115738590960 Bi
   0.3402726629876080    0.3817853426434282    0.6087879934901756 Bi
   0.7450854958250727    0.9872520835307430    0.5903809474089656 Sb
   0.2549149434859165    0.0127472150959362    0.4096186199403053 Sb
   0.7549151631414106    0.5127468644092756    0.0903811637343302 Sb
   0.2450852761695777    0.4872524342174033    0.9096184036149414 Sb
   0.5856143837967044    0.6304481485167338    0.9308963641593790 O
   0.9143862751697790    0.8695507994232848    0.4308965804847443 O
   0.6611718543733244    0.0613711934314699    0.7707756196259643 O
   0.0562479622590526    0.6619115217124746    0.0081481232542450 O
   0.2203891799343875    0.0044754615697278    0.9225856680267780 O
   0.3950370570394893    0.3039037335649007    0.8072092310201670 O
   0.1611721216009100    0.5613713120776053    0.7292237313979428 O
   0.7796112593766013    0.9955238370569516    0.0774138993224932 O
   0.0856141641412096    0.1304484992033947    0.5691029868645280 O
   0.3388280980545843   -0.0613716627642652    0.2292239477233069 O
   0.5562476950314659    0.1619114030663391    0.4918516604203906 O
   0.4437527442795224    0.8380878955603395    0.5081479069288805 O
  -0.1049626757329241    0.8039038522110350    0.6927901200037403 O
   0.8388283177100779    0.4386279865490743    0.2707758359513288 O
   0.7203893995898820    0.5044751108830672    0.5774136829971291 O
   0.6049633822714989    0.6960955650617791    0.1927903363291049 O
   0.9437524770519364    0.3380877769142055   -0.0081481232542449 O
   0.4143860555142849    0.3695511501099446    0.0691032031898920 O
   0.2796110397211068    0.4955241877436116    0.4225858843521427 O
   0.1049631626160049    0.1960959157484389    0.3072094473455308 O
