Zn1 Si1 O2
1.0
   2.9269158598168343    0.0000000000000000    0.0000000000000000
   0.0000000000000000    2.9269158598168343    0.0000000000000000
   0.0000000000000000    0.0000000000000000    5.0060981724910576
Zn Si O
1 1 2
direct
   0.5000006586419294    0.5000006586419294    0.5342228435792681 Zn
   0.0000000000000000    0.0000000000000000    0.0295404515578378 Si
   0.0000000000000000    0.0000000000000000    0.3819952223677847 O
   0.5000006586419294    0.5000006586419294    0.0642405985025338 O
