Zr2 Se3 S3
1.0
   3.7190751755635696   -0.0000000000000000    0.0000000000000002
   0.0000000000000009    5.3321010159143185    0.6179355679521609
   0.0000000000000000    0.0804898887399746    9.3776944656600580
Zr Se S
2 3 3
direct
   0.5000006486070060    0.7159420782769046    0.6604842474135314 Zr
  -0.0000000000000001    0.2833587071919519    0.3367936378300564 Zr
  -0.0000000000000001    0.4656257148219885    0.8437978233315171 Se
   0.5000006486070061    0.2377509679456828    0.5551715246222784 Se
  -0.0000000000000002    0.7608326077441534    0.4415102529116854 Se
   0.5000006486070062    0.1279523840693891    0.1691324999684081 S
  -0.0000000000000002    0.8903992696076276    0.8181257620638618 S
   0.5000006486070061    0.5181375912356582    0.1749832822712279 S
