Zn1 Cd1 Ag2
1.0
   3.1673877743703258   -0.0000000000000001    0.0000000000000002
   0.0000000000000004    3.1673877743703258    0.0000000000000002
  -0.0000000000000000    0.0000000000000000    7.0356177778313969
Zn Cd Ag
1 1 2
direct
   0.5000003513352062    0.5000003513352064    0.5000001579227775 Zn
   0.5000003513352062    0.5000003513352064   -0.0000000000000000 Cd
   0.0000000000000000    0.0000000000000000    0.7238566164354514 Ag
   0.0000000000000000    0.0000000000000000    0.2761436994101036 Ag
