Nb2 Pt2
1.0
   2.8176220487485142    0.0000000000000000    0.0000000000000000
   0.0000000000000000    4.6586638812792067   -0.0000000000000000
   0.0000000000000000   -0.0000000000000000    5.0631053626987264
Nb Pt
2 2
direct
   0.0000000000000000    0.7499993751514428    0.1784926647965117 Nb
   0.0000000000000000    0.2499997917171476    0.8215082511040950 Nb
   0.4999996364401472    0.7499993751514428    0.6743167473352542 Pt
   0.4999996364401472    0.2499997917171476    0.3256841685653525 Pt
