V4 Zn4 O10
1.0
   0.0000000000000000    7.4851222231133629   -0.0002480019767506
   3.2659640132733831    0.0000000000000000    0.0000000000000000
   0.0000000000000000    0.0001164826423340  -10.2979047289732595
V Zn O
4 4 10
direct
   0.6929557293894152    0.0000000000000000    0.3973424439333315 V
   0.3070347420410470    0.0000000000000000    0.6026746825188192 V
   0.8070422084769925    0.0000000000000000    0.8973301990889404 V
   0.1929516931471934    0.0000000000000000    0.1026527626007255 V
   0.5935605362203112    0.4999993855913037    0.1289529152695798 Zn
   0.4064135273566726    0.4999993855913037    0.8710581132841724 Zn
   0.0935743702765102    0.4999993855913037    0.3710497606575444 Zn
   0.9064095836332523    0.4999993855913037    0.6289400711999752 Zn
   0.8318722747358644    0.4999993855913037    0.4358118069390740 O
   0.1526086087494584    0.0000000000000000    0.2829097023480172 O
   0.3318688226115701    0.4999993855913037    0.0641804616035785 O
   0.6681298640088874    0.4999993855913037    0.9358282186255572 O
   0.5000495384899122    0.0000000000000000    0.5000619707644758 O
   0.3473847010526309    0.0000000000000000    0.7829162009954695 O
   0.8473801617093469    0.0000000000000000    0.7170826781337569 O
   0.0000467068546727    0.0000000000000000   -0.0000584966689519 O
   0.6525981498747347    0.0000000000000000    0.2170931058274245 O
   0.1681222511321886    0.4999993855913037    0.5641721486878647 O
