Ce3 B1
1.0
   4.3870713344704768    0.0000000000000000    0.0000000000000000
   0.0000000000000000    4.3870713344704768    0.0000000000000000
  -0.0000000000000000   -0.0000000000000000    4.3870713344704768
Ce B
3 1
direct
   0.0000000000000000    0.4999998479087328    0.4999998479087328 Ce
   0.4999998479087328    0.0000000000000000    0.4999998479087328 Ce
   0.4999998479087328    0.4999998479087328    0.0000000000000000 Ce
   0.0000000000000000    0.0000000000000000    0.0000000000000000 B
