Nb1 O2 F1
1.0
   3.9097916315845671   -0.0000000000000000    0.0000000000000002
   0.0000000000000006    3.9097916315845671    0.0000000000000002
   0.0000000000000000   -0.0000000000000000    4.1413832048046393
Nb O F
1 2 1
direct
   0.0000000000000000    0.0000000000000000    0.0000000000000000 Nb
  -0.0000000000000001    0.4999997913463529   -0.0000000000000000 O
   0.4999997913463529    0.0000000000000000   -0.0000000000000000 O
   0.0000000000000000    0.0000000000000000    0.4999996130755739 F
