Be1 Ni3
1.0
   3.1397859512185331    0.0040370596115964   -2.7064373450200105
  -0.6567579384538964    3.0703324132082770   -2.7064373450200105
  -0.0032605489346193   -0.0040370596133823    4.1452440568435351
Be Ni
1 3
direct
   0.0000000000000000    0.0000000000000000    0.0000000000000000 Be
   0.7500008984539343    0.2500000410652696    0.4999994835884526 Ni
   0.2499997416212354    0.7499991690177166    0.4999981589288651 Ni
   0.5000003338439872    0.5000000849290546   -0.0000003670705438 Ni
