Ge4 Pb1 O9
1.0
   4.5899843350177347    0.0008774801795978   -1.0708659324149499
  -2.2859626682127998    5.8207088157049895   -2.8833617623546699
  -0.0055593266954675   -0.0028994454958118    6.8862193997990238
Ge Pb O
4 1 9
direct
   0.4999998687294079    0.4873872215894791    0.5126130105627400 Ge
   0.6799906569177976    0.4869454726335498    0.0691321231298739 Ge
   0.0000000760467362    0.3079101130298479    0.6920900333519591 Ge
   0.3200094692371721    0.9308680194663436    0.5130551721039684 Ge
  -0.0000000026183640   -0.0029851398465107    0.0029851376708275 Pb
   0.6052388247247239    0.0914965132918135    0.4565567423444583 O
   0.3947606145839326    0.5434431848557446    0.9085037760295918 O
   0.8405701021186126    0.2854105112190528    0.9224407940002088 O
   0.8661878196459806    0.5551830385223036    0.7136138768401650 O
   0.1594290985796049    0.0775589266453345    0.7145897863587702 O
   0.1338118009467339    0.2863860046553595    0.4448174471635039 O
   0.5132993757780173    0.3754366006119016    0.2277578018555688 O
   0.0000004692781719    0.7561190445097610    0.2438814286708801 O
   0.4867005133769626    0.7722424099565306    0.6245637779493707 O
