Yb4 Li4 Ge8
1.0
   3.9248260220197180    0.0000000000000000    0.0000000000000000
  -0.0000000000000000    8.0171525319468540    0.0000000000000000
   0.0000000000000000    0.0000000000000000   10.6318421132278793
Yb Li Ge
4 4 8
direct
   0.2500002533857718    0.1321214344801998    0.6364970274058551 Yb
   0.7500007601573153    0.3678784076116874    0.1364971267878745 Yb
   0.7500007601573153    0.8678782497035746    0.3635027738301060 Yb
   0.2500002533857718    0.6321212765720868    0.8635026744480866 Yb
   0.2500002533857718    0.4888609565384113    0.3911962209852592 Li
   0.7500007601573153    0.0111388855534759    0.8911961216032395 Li
   0.7500007601573153    0.5111387276453631    0.6088035802507020 Li
   0.2500002533857718    0.9888607986302984    0.1088036796327215 Li
   0.2500002533857718    0.1554211209390095    0.3191112405582179 Ge
   0.7500007601573153    0.3445787211528777    0.8191111411761984 Ge
   0.7500007601573153    0.8445785632447647    0.6808885606777432 Ge
   0.2500002533857718    0.6554209630308969    0.1808886600597627 Ge
   0.2500002533857718    0.2336205132004975    0.9400673737944055 Ge
   0.7500007601573153    0.2663793288913897    0.4400674731764252 Ge
   0.7500007601573153    0.7663791709832766    0.0599324274415555 Ge
   0.2500002533857718    0.7336203552923849    0.5599323280595362 Ge
