Sc2 Be1 Co1
1.0
   3.0046462287936788    0.0000000000000000    0.0000000000000000
   0.0000000000000000    3.0046462287936788    0.0000000000000000
  -0.0000000000000000   -0.0000000000000000    7.0211996967966126
Sc Be Co
2 1 1
direct
   0.0000000000000000    0.0000000000000000    0.9353424738315168 Sc
   0.5000006275624540    0.5000006275624540    0.3155081151579961 Sc
   0.0000000000000000    0.0000000000000000    0.5644899683333529 Be
   0.5000006275624540    0.5000006275624540    0.6846595506370989 Co
