Br2 F10
1.0
   4.8759470183061406   -0.0200608674011199    0.0000000000000000
  -0.6050333763640566    4.8383046929043783    0.0000000000000000
   0.0000000000000000   -0.0000000000000000    7.6107106055032085
Br F
2 10
direct
   0.8299689651974489    0.1700316448596972    0.2547752950305213 Br
   0.1700322412764189    0.8299675694724739    0.7547752552508449 Br
   0.0979787412937264    0.4674416802646588    0.2446213376654855 F
   0.9020224651801406    0.5325575340675118    0.7446212978858091 F
   0.3384662406356088    0.6615337741105293    0.5908208081570137 F
   0.6615349658382582    0.3384654402216427    0.0908208479366902 F
   0.3556663880266107    0.6443336475778054    0.9107098502554262 F
   0.6443348184472565    0.3556655667543663    0.4107098900351028 F
   0.0062090642075090    0.9937905481120678    0.5644531476641245 F
   0.9937921422663583    0.0062086662201028    0.0644531874438008 F
   0.4674424672207316    0.0979784018270874    0.7446212978858091 F
   0.5325587392531363    0.9020208125050833    0.2446213376654855 F
