Ba4 Sn1 P1
1.0
  -0.0000000000000000    4.8690130279340140    4.8690130279340140
   4.8690130279340140   -0.0000000000000000    4.8690130279340140
   4.8690130279340140    4.8690130279340140   -0.0000000000000000
Ba Sn P
4 1 1
direct
   0.1269710585687745    0.6243428992246030    0.6243428992246030 Ba
   0.6243428992246028    0.6243428992246030    0.6243428992246030 Ba
   0.6243428992246030    0.1269710585687745    0.6243428992246030 Ba
   0.6243428992246030    0.6243428992246028    0.1269710585687745 Ba
   0.0000000000000000    0.0000000000000000    0.0000000000000000 Sn
   0.2499998445304009    0.2499998445304009    0.2499998445304009 P
