Dy2 I6
1.0
  10.4806009802941915    0.0000000572520535    0.0000000000000000
  -5.2403008925552328    9.0764664572774638   -0.0000000000000000
  -0.0000000000000000   -0.0000000000000000    3.9863313449460414
Dy I
2 6
direct
   0.3333321546524786    0.6666672581106026    0.7499987469582711 Dy
   0.6666660289820833    0.3333331259012378    0.2499979156533164 Dy
   0.2064173483515753    0.4128356649635711    0.2499979156533164 I
   0.5871636605598157    0.7935820534641943    0.2499979156533164 I
   0.2064174550452929    0.7935820559032541    0.2499979156533164 I
   0.7935818352826075    0.5871637190478750    0.7499987469582711 I
   0.4128365230745548    0.2064183305476336    0.7499987469582711 I
   0.7935827285890775    0.2064183281085736    0.7499987469582711 I
