Sc4 Co2 Si4
1.0
   3.8577071473290863   -0.0000000002393427    0.9206999121880896
   1.8728883656096558    4.9289719790187485    0.6948444153001637
   0.0041964729361351   -0.0109168534305565    8.5246083024746628
Sc Co Si
4 2 4
direct
   0.6837007174742320    0.7373964526182742    0.8952060127646648 Sc
   0.4996282731533347    0.6724725622737205    0.3282714203278796 Sc
   0.3163018658806395    0.2626025064270273    0.1047934845546478 Sc
   0.5003743102015368    0.3275263967715809    0.6717280769914332 Sc
   0.2257939649039336    0.9226330897006934    0.6257807684910981 Co
   0.7742086184509380    0.0773658693446085    0.3742187288282143 Co
   0.0130899373942967    0.8488068435869813    0.1250137829301714 Si
   0.8543571487338260    0.7215647878303968    0.5697244232938469 Si
   0.9869126459605752    0.1511921154583202    0.8749857143891411 Si
   0.1456454346210458    0.2784341712149045    0.4302750740254657 Si
