La1 Sb5
1.0
   2.2372452014039799   -3.8750300832019828   -0.0000000000000000
   2.2372452014039799    3.8750300832019828    0.0000000000000000
   0.0000000000000000   -0.0000000000000000   11.1654244002770238
La Sb
1 5
direct
   0.0000000000000000    0.0000000000000000    0.2500018084636775 La
   0.6666677355221969    0.3333344093459726    0.0722714749263159 Sb
   0.6666677355221969    0.3333344093459726    0.5893819785385779 Sb
   0.3333344093459726    0.6666677355221969    0.4277441554206741 Sb
   0.3333344093459726    0.6666677355221969    0.9105927311343479 Sb
   0.0000000000000000    0.0000000000000000    0.7500066692209019 Sb
