Tm2 Tl1 Cd1
1.0
  -0.0000000000000000    3.6950992147585406    3.6950992147585406
   3.6950992147585406    0.0000000000000000    3.6950992147585406
   3.6950992147585406    3.6950992147585406   -0.0000000000000000
Tm Tl Cd
2 1 1
direct
   0.0000000000000000    0.0000000000000000    0.0000000000000000 Tm
   0.5000001062544487    0.5000001062544487    0.5000001062544485 Tm
   0.7500011593818832    0.7500011593818831    0.7500011593818828 Tl
   0.2500000531272243    0.2500000531272243    0.2500000531272242 Cd
