Be2 Cd1 Cu1
1.0
   3.9989231278191530    0.0000000000000000    0.0000000000000000
   0.0000000000000000    3.9989231278191530    0.0000000000000000
   0.0000000000000000   -0.0000000000000000    3.0435822030432771
Be Cd Cu
2 1 1
direct
   0.4999996089173194    0.0000000000000000    0.0000000000000000 Be
   0.0000000000000000    0.4999996089173194    0.0000000000000000 Be
   0.4999996089173194    0.4999996089173194    0.4999996380838219 Cd
   0.0000000000000000    0.0000000000000000    0.4999996380838219 Cu
