In6 As2 Se6
1.0
   4.2098439404293222    0.0000000000000000    0.0000000000000000
   0.0000000000000000    5.9656467446934851    0.0000000000000000
   0.0000000000000000    0.0000000000000000   16.7543232448846595
In As Se
6 2 6
direct
   0.4999995319981717    0.4964145484610510    0.9346917384676674 In
   0.0000000000000000    0.9964148212987376    0.0653080678578634 In
   0.0000000000000000    0.9941745255746680    0.2995128920818250 In
   0.4999995319981717    0.4857633597555892    0.4330063163061032 In
   0.0000000000000000    0.9857636325932757    0.5669934900194276 In
   0.4999995319981717    0.4941742527369812    0.7004869142437062 In
   0.0000000000000000    0.7506525472119248    0.4329020705816561 As
   0.4999995319981717    0.2506522743742381    0.5670977357438741 As
   0.4999995319981717    0.2201739785108169    0.8181080915963903 Se
   0.0000000000000000    0.7780949342652307    0.9267742536349076 Se
   0.4999995319981717    0.2780946614275443    0.0732255526906234 Se
   0.0000000000000000    0.7201742513485037    0.1818917147291408 Se
   0.4999995319981717    0.2747282889222199    0.2938835577681050 Se
   0.0000000000000000    0.7747285617599067    0.7061162485574251 Se
