Yb4 Mg2 Ti2 O12
1.0
   5.6058258808472656    0.0000000000000000    0.0000000000000000
   0.0000000000000000    4.3827126978300601    2.9955724084346174
   0.0000000000000000    0.0015097661320698    9.1811040412313130
Yb Mg Ti O
4 2 2 12
direct
   0.0656188365543483    0.7262196350887131    0.7532529001080512 Yb
   0.9343818982442030    0.2737798028898744    0.2467465807724538 Yb
   0.5656192039536236    0.2737798296494250    0.7467463519572896 Yb
   0.4343815308449273    0.7262196083291624    0.2532531289232152 Yb
   0.5000003673992756    0.4999996922297431   -0.0000000307445834 Mg
   0.0000000000000000    0.4999997189892937    0.4999997404402525 Mg
   0.5000003673992756    0.0000000267595507    0.4999997711848359 Ti
   0.0000000000000000    0.0000000000000000    0.0000000000000000 Ti
   0.6966999338080960    0.3443426131980499    0.4515764803062290 O
   0.3033008009904553    0.6556568247805380    0.5484230005742760 O
   0.7119863415142732    0.7538102448270887    0.0548169512130725 O
   0.2880143932842783    0.2461891931514990    0.9451825296674320 O
   0.2119859741149973    0.2461891663919483    0.4451827584825966 O
   0.5327182817384211    0.1441125810111907    0.2546690193959811 O
   0.0327179143391457    0.8558868302078464    0.2453306902996882 O
   0.9672828204594056    0.1441126077707414    0.7546687905808172 O
   0.8033011683897305    0.3443426399576006    0.9515762514910647 O
   0.4672824530601297    0.8558868569673971    0.7453304614845236 O
   0.7880147606835535    0.7538102715866394    0.5548167223979088 O
   0.1966995664088203    0.6556567980209873    0.0484232293894400 O
