Tl4 Zn4 As4 O16
1.0
   0.0000000000000000    9.0230572375795735    0.0279359229380073
   5.6831795756317103    0.0000000000000000    0.0000000000000000
   0.0000000000000000   -0.1557888498806322   -8.9743419149190053
Tl Zn As O
4 4 4 16
direct
   0.9978132922672894    0.9888212974086718    0.1836898238730519 Tl
   0.0021868749005692    0.4888212600732080    0.8163095089681676 Tl
   0.5023050995071131    0.0038313386867165    0.3260000167685175 Tl
   0.4976950676607457    0.5038313760221799    0.6739993160727014 Tl
   0.1783845781708399    0.0047551591018004    0.5984037628516281 Zn
   0.8216155889970194    0.5047551964372642    0.4015955699895906 Zn
   0.6715775093485854    0.9634089220043049    0.9251668664373638 Zn
   0.3284226578192734    0.4634088846688416    0.0748324664038552 Zn
   0.6902498350662097    0.4664846189460410    0.0656346694331762 As
   0.3097503321016491    0.9664846562815050    0.9343646634080427 As
   0.1866341270493865    0.5024153698391065    0.3998053121697432 As
   0.8133660401184722    0.0024153325036432    0.6001940206714763 As
   0.7798959884533839    0.2988659237055039    0.5719117425291430 O
   0.2201041787144750    0.7988659610409674    0.4280875903120768 O
   0.7886470056254327    0.2441680203325504    0.9817978516533363 O
   0.2113531615424255    0.7441680576680136    0.0182014811878834 O
   0.6760704668514441    0.8944491159277050    0.7123470540588975 O
   0.3239297003164150    0.3944490785922413    0.2876522787823220 O
   0.1980480910014812    0.3497515152099122    0.5660252399372619 O
   0.9827704752941020    0.9641397740259131    0.6889820187071070 O
   0.7874344256900633    0.7229662962323417    0.0388220447413234 O
   0.2125657414777953    0.2229662588968784    0.9611772880998957 O
   0.5203795330148551    0.4950383724599640    0.9746256653864142 O
   0.4796206341530034    0.9950384097954278    0.0253736674548047 O
   0.6682589383050235    0.4092048218370019    0.2522134714541866 O
   0.0172296918737568    0.4641397366904491    0.3110173141341129 O
   0.8019520761663775    0.8497515525453765    0.4339740929039569 O
   0.3317412288628359    0.9092048591724653    0.7477858613870325 O
