Sm1 Ag3
1.0
  -0.0000000000000000    3.4875774557710155    3.4875774557710155
   3.4875774557710155    0.0000000000000000    3.4875774557710155
   3.4875774557710155    3.4875774557710155    0.0000000000000000
Sm Ag
1 3
direct
   0.7500005471338667    0.7500005471338665    0.7500005471338665 Sm
   0.0000000000000000    0.0000000000000000    0.0000000000000000 Ag
   0.5000003647559110    0.5000003647559110    0.5000003647559110 Ag
   0.2499991823772285    0.2499991823772285    0.2499991823772285 Ag
