Na8
1.0
   6.6255685008281189   -0.0000000000000000    0.0000000000000004
   0.0000000000000011    6.6255685008281189    0.0000000000000004
  -0.0000000000000000    0.0000000000000000    6.6255685008281189
Na
8
direct
   0.0000000000000000    0.0000000000000000    0.0000000000000000 Na
   0.5000001131353393    0.2500000565676697   -0.0000000000000000 Na
   0.5000001131353392    0.7500001697030090   -0.0000000000000001 Na
  -0.0000000000000001    0.5000001131353393    0.2500000565676697 Na
   0.2500000565676697    0.0000000000000000    0.5000001131353393 Na
   0.7500001697030090    0.0000000000000000    0.5000001131353393 Na
   0.5000001131353392    0.5000001131353393    0.5000001131353393 Na
  -0.0000000000000001    0.5000001131353393    0.7500001697030090 Na
