Mg6 Nb1 Cr1
1.0
   6.2031614090852969    0.2905892244971626    0.0000000000000000
  -2.8499233439194978    4.9362123840423999    0.0000000000000000
   0.0000000000000000    0.0000000000000000    4.9079894958858983
Mg Nb Cr
6 1 1
direct
   0.6487681637561681    0.3243741539207656    0.2500000256782386 Mg
   0.6487683181735747    0.8243926472282886    0.2500000256782386 Mg
   0.3310280895735135    0.1642450635972268    0.7500000770347158 Mg
   0.3310282447692377    0.6667837186274839    0.7500000770347158 Mg
   0.8555551357720248    0.1777776579036040    0.7500000770347158 Mg
   0.8796329172035907    0.6898167187592560    0.7500000770347158 Mg
   0.1472150236882139    0.3236063352430800    0.2500000256782386 Nb
   0.1580047387723958    0.8290023640717478    0.2500000256782386 Cr
