Rb1 La2 Ti2 Nb1 O10
1.0
   3.8708110033805285   -0.0000000000000000    0.0000000000000002
   0.0000000000000006    3.8708110033805281    0.0000000000000002
  -0.0000000000000000   -0.0000000000000000   15.3357766077244317
Rb La Ti Nb O
1 2 2 1 10
direct
   0.4999998703914337    0.4999998703914338    0.5165968746274984 Rb
   0.4999998703914337    0.4999998703914338    0.8445558144834135 La
   0.4999998703914337    0.4999998703914338    0.1300782403441099 La
   0.0000000000000000    0.0000000000000000    0.9974017023621584 Ti
   0.0000000000000000    0.0000000000000000    0.7095989805854139 Ti
   0.0000000000000000    0.0000000000000000    0.2863559600717422 Nb
   0.0000000000000000    0.0000000000000000    0.8754040964060834 O
   0.0000000000000000    0.0000000000000000    0.1293630390288721 O
   0.0000000000000000    0.0000000000000000    0.5984662793045472 O
   0.0000000000000000    0.0000000000000000    0.4031455052304689 O
   0.4999998703914337    0.0000000000000000    0.0069432047646973 O
  -0.0000000000000001    0.4999998703914338    0.0069432047646973 O
   0.4999998703914337    0.0000000000000000    0.7457357035373522 O
  -0.0000000000000001    0.4999998703914338    0.7457357035373522 O
   0.4999998703914337    0.0000000000000000    0.2518396749764468 O
  -0.0000000000000001    0.4999998703914338    0.2518396749764468 O
