Li3 Ti1 V2 O6
1.0
   2.9023879517092621    0.0019450505350325   -0.0000982759280848
  -0.0038357293981074    5.9373949136562159   -0.0681123660459458
  -1.4500717277796136   -1.5533507894121776    6.2777628016760314
Li Ti V O
3 1 2 6
direct
   0.3313487222475826    0.1667281312971477    0.6666595133987910 Li
   0.0000636688580363    0.4954255036978243    0.0041170881840296 Li
   0.6626125918181562    0.8379647065957225    0.3291736586342852 Li
   0.3313293094374267    0.6667201395446132    0.6666556982197769 Ti
   0.6656746057453622    0.3363136733901654    0.3353455355355063 V
   0.9969675906088107    0.9970905696664487    0.9979490239686365 V
   0.4937318221578846    0.7535057433196634    0.9914704425742028 O
   0.1602575111620059    0.0938135664341362    0.3245036428118995 O
   0.1689162890587629    0.5799043847999559    0.3418328867750431 O
   0.8296765373082929    0.4250969300959810    0.6633429626022727 O
   0.5023874630579829    0.2395971324562362    0.0087913372040157 O
   0.8329751783687834    0.9083414300431534    0.6699523402756571 O
