Ba10 Hf4 N12
1.0
   6.6920985799175412    0.0587781477914505   -0.6690719301029201
  -4.0723612802726645    6.0995176714999948    0.0000000005202152
  -0.1077991061441369   -0.0719722593804476   14.8905120335665782
Ba Hf N
10 4 12
direct
   0.0823000289142823    0.7694862607942934    0.9831312894349719 Ba
   0.9177011156507818    0.6871867250401753    0.5168686867103522 Ba
   0.9177008790047765    0.2305147866912750    0.0168687443771148 Ba
   0.0822997922682768    0.3128143224453926    0.4831313471017350 Ba
   0.3116207450943946    0.0955924267441526    0.7081956997254217 Ba
   0.6883801561691413    0.7839723130280472    0.7918042655078743 Ba
   0.6883801628246640    0.9044086207414158    0.2918043340866651 Ba
   0.3116207517499175    0.2160287344575209    0.2081957683042126 Ba
   0.0000002316494126    0.3924953417073059    0.7499999079689840 Ba
   0.0000002781760299    0.6075054042092104    0.2499999783360071 Ba
   0.5525571791325252    0.6531666432200126    0.0760733580182415 Hf
   0.4474435808624861    0.1006098536309574    0.4239267374397717 Hf
   0.5525573270565722    0.8993911938546110    0.5760732963723145 Hf
   0.4474437287865336    0.3468344042655557    0.9239266757938456 Hf
   0.4043869772163464    0.7978734651655948    0.4406862961694642 N
   0.8846842940321564    0.9652181847237797    0.6216328472346895 N
   0.1153166772940014    0.0805342327833217    0.8783671211409005 N
   0.1153166138869025    0.0347828627617884    0.3783671865773977 N
   0.8846842306250573    0.9194668147022463    0.1216329126711867 N
   0.2905093241814173    0.7279411936696771    0.6577438052245054 N
   0.7094916975759423    0.4374334345336645    0.8422561654129229 N
   0.7094915837376413    0.2720598538158909    0.3422562285875819 N
   0.2905092103431164    0.5625676129519037    0.1577438683991639 N
   0.5956139307027117    0.2021275823199737    0.5593137376426222 N
   0.4043869406606334    0.6065142587953011    0.9406862262496413 N
   0.5956139672584252    0.3934867886902671    0.0593138075624454 N
