Ba1 Ge3 Pt1
1.0
   4.3041909496830204   -0.0000000018238676   -1.7529429285399429
  -0.7139115723882887    4.2445721199158237   -1.7529429345324046
  -0.0119383007260877   -0.0141133481197376    6.1314322046537315
Ba Ge Pt
1 3 1
direct
   0.0005269626340745    0.0005269634479264    0.0010539259753589 Ba
   0.7536585074964155    0.2536590097978854    0.5073167824082732 Ge
   0.2536587590227154    0.7536587598653863    0.5073167833525993 Ge
   0.3998459939056635    0.3998466115104034    0.7996925245264621 Ge
   0.6480103510922988    0.6480102992511474    0.2960212526090775 Pt
