K3 Ir1 N6 O12
1.0
   6.3318718783327590    0.0000000030854815    3.6557080466605925
   2.1106236319369782    5.9697468398565956    3.6557080466605925
   0.0000000000000000   -0.0000000000000000    7.3114160933211849
K Ir N O
3 1 6 12
direct
   0.7499992151067554    0.7500003966321367    0.7500009956193695 K
   0.4999994767378368    0.5000002644214244    0.5000006637462462 K
   0.2499997383689184    0.2500001322107122    0.2500003318731231 K
   0.0000000000000000    0.0000000000000000    0.0000000000000000 Ir
   0.8036262147054333    0.8036274807117550    0.1963736866172827 N
   0.1963722833009278    0.8036274810250889    0.1963734342071795 N
   0.1963727387702407    0.1963730481310937    0.8036276408752098 N
   0.8036266701747460    0.1963730478177601    0.8036278932853127 N
   0.1963722833009278    0.8036274810250889    0.8036278701185580 N
   0.8036266701747460    0.1963730478177601    0.1963734573739347 N
   0.4088628538745135   -0.0000000002110442    0.5911375107151241 O
  -0.0000003066667519    0.4088631915266805    0.5911374951168945 O
   0.0000000000000000    0.0000000000000000    0.5911373407678406 O
  -0.0000004433825488    0.5911373378330214    0.0000002231586841 O
  -0.0000004433825488    0.5911373378330214    0.4088634167167203 O
   0.4088628538745135   -0.0000000002110442    0.0000001699472836 O
  -0.0000003066667519    0.4088631915266805    0.0000001543490539 O
   0.5911368496504612   -0.0000000003058086    0.4088634392696304 O
   0.5911365429837090    0.4088631912208718    0.0000004000606479 O
   0.4088624104919645    0.5911373376219771    0.0000003931059677 O
   0.5911368496504612   -0.0000000003058086    0.0000002457115941 O
   0.0000000000000000    0.0000000000000000    0.4088631935580364 O
