La1 Ni5 H6
1.0
   5.4422556551946020    0.0000000045671349    0.0000000000000003
  -2.7211271392416005    4.7131320487103325    0.0000000000000003
   0.0000000000000000    0.0000000000000000    4.0471091345790944
La Ni H
1 5 6
direct
   0.0000000000000000    0.0000000000000000    0.8785528424432393 La
   0.6666669509088335    0.3333331877935555    0.9909752363984059 Ni
   0.3333331039557517    0.6666663765561280    0.9909752363984059 Ni
   0.5000000274322927    0.4999997821748418    0.5038266570045493 Ni
  -0.0000003714986687    0.4999997826593539    0.5038266570045493 Ni
   0.5000003989309613   -0.0000000004845121    0.5038266570045493 Ni
   0.7955245110669761    0.2044758820734903    0.2915323371131744 H
   0.4089531178154336    0.2044758824481401    0.2915323371131744 H
   0.7955242238456361    0.5910467988594651    0.2915323371131743 H
   0.2044755437976090    0.7955236822761932    0.2915323371131744 H
   0.2044758310189488    0.4089527654902183    0.2915323371131744 H
   0.5910469370491515    0.7955236819015432    0.2915323371131743 H
