Zr4 Te4
1.0
   3.8138249438467886    0.0000000000000000    0.0000000000000000
   0.0000000000000000    7.0097540293434593    0.0000000000000000
   0.0000000000000000    0.0000000000000000    7.4522516993144121
Zr Te
4 4
direct
   0.7499990277778489    0.3117020832524095    0.9916423800446981 Zr
   0.7499990277778489    0.1882976293378298    0.4916424940581857 Zr
   0.2499996759259496    0.6882973419280691    0.0083573919283268 Zr
   0.2499996759259496    0.8117017958426483    0.5083572779148395 Zr
   0.2499996759259496    0.4258409074643605    0.7083753530457109 Te
   0.7499990277778489    0.5741585177161175    0.2916244189273143 Te
   0.2499996759259496    0.0741588051258785    0.2083754670591981 Te
   0.7499990277778489    0.9258406200546000    0.7916243049138266 Te
