Bi2 O4
1.0
   3.8546651496851245    0.0000000000000001   -0.0000000000000000
  -1.9273325748425623    3.3382385078213823   -0.0000000000000000
   0.0000000000000000   -0.0000000000000000    7.0885825750874982
Bi O
2 4
direct
   0.6666681360245971    0.3333331489984567    0.7499997275455844 Bi
   0.3333340137515045    0.6666672979973508    0.2499999091818615 Bi
   0.3333340137515045    0.6666672979973508    0.6020673899623831 O
   0.6666681360245971    0.3333331489984567    0.1020675715986601 O
   0.3333340137515045    0.6666672979973508    0.8979320651287858 O
   0.6666681360245971    0.3333331489984567    0.3979322467650628 O
