Yb2 Tl1 Zn1
1.0
   4.5231371083096477   -0.0000000000000000    2.6114344270641614
   1.5077123694365493    4.2644545620296839    2.6114344270641614
  -0.0000000000000000   -0.0000000000000000    5.2228688541283219
Yb Tl Zn
2 1 1
direct
   0.2500001180140473    0.2499997325549131    0.2499997057489202 Yb
   0.7500003540421417    0.7499991976647393    0.7499991172467606 Yb
   0.5000002360280945    0.4999994651098262    0.4999994114978405 Tl
   0.0000000000000000    0.0000000000000000    0.0000000000000000 Zn
