Al6 V6 O24
1.0
   6.5806655941499681    0.0046038261063023    0.0123253353187224
  -1.5479983127757382    7.6651665326970919   -0.0001960314561638
  -2.7162687865007138   -1.5784657183978290    8.6334181015706957
Al V O
6 6 24
direct
   0.7487406684211221    0.7005321396270169    0.4088596068807027 Al
   0.2512595563092065    0.2994673166671072    0.5911406933121360 Al
   0.4611534402558256    0.8840550241028949    0.2106040970573695 Al
   0.5388467844745033    0.1159444321912300    0.7893962031354687 Al
   0.9624945216918047    0.3078472834178459    0.0078585414014203 Al
   0.0375057030385238    0.6921521728762787    0.9921417587914182 Al
   0.5173342453565579    0.3010263747672584    0.1254836881453692 V
   0.8034309838972834    0.3994345485986964    0.6555102624014776 V
   0.4826659793737710    0.6989730815268658    0.8745166120474689 V
   0.9973931792009655    0.0038451166870061    0.7451866458461804 V
   0.0026070455293634    0.9961543396071190    0.2548136543466572 V
   0.1965692408330454    0.6005649076954281    0.3444900377913600 V
   0.5231948012989752    0.1191758148971894    0.2168105785660430 O
   0.0497641780883301    0.8470474947735280    0.8515009905261696 O
   0.9502360466419983    0.1529519615205967    0.1484993096666687 O
   0.7479900394632946    0.7027124432122955    0.9672365194480099 O
   0.2520101852670345    0.2972870130818285    0.0327637807448282 O
   0.6452383502559195    0.2731978022607044    0.9757725330219128 O
   0.3547618744744092    0.7268016540334209    0.0242277671709255 O
   0.8444123793468521    0.1308203646577810    0.8269166474293891 O
   0.1555878453834764    0.8691790916363433    0.1730836527634493 O
   0.4768054234313540    0.8808236413969347    0.7831897216267957 O
   0.2488882334619436    0.1357722875333831    0.7369208109495725 O
   0.9576055056290615    0.2991536909104169    0.5723992995582737 O
   0.5437419435398677    0.2559224736560919    0.6383967229779826 O
   0.4562582811904604    0.7440769826380326    0.3616035772148558 O
   0.8388420146149899    0.9034711167946277    0.5669656155120800 O
   0.1611582101153390    0.0965283394994976    0.4330346846807575 O
   0.0491257756233919    0.5243015859864676    0.1426419702624167 O
   0.0423947191012668    0.7008457653837071    0.4276010006345645 O
   0.7402515688436301    0.5661726861667563    0.5659025702607304 O
   0.2597486558866991    0.4338267701273682    0.4340977299321081 O
   0.3572383182405930    0.5071662324090774    0.7454822315144092 O
   0.6427619064897354    0.4928332238850473    0.2545180686784292 O
   0.7511119912683847    0.8642271687607410    0.2630794892432664 O
   0.9508744491069371    0.4756978703076571    0.8573583299304219 O
