Si1 Bi12 O20
1.0
   8.2878871274671848   -0.0000000000730112   -2.9302105980768367
  -4.1439435588434064    7.1775207922711628   -2.9302105980768367
   0.0000000000330316    0.0000000000572124    8.7906317844171049
Si Bi O
1 12 20
direct
   0.0000000000000000    0.0000000000000000    0.0000000000000000 Si
   0.3320279358099955    0.1890855258543142    0.4939260030799714 Bi
   0.1429423568608749    0.3048404325200365    0.8109143624498663 Bi
   0.1618986497549207    0.8570577121435476    0.6679722778318642 Bi
   0.5060744226344779    0.6951594570911380    0.8381017582746763 Bi
   0.8109147878239789    0.1429421774763091    0.3048405754498940 Bi
   0.8570583537685840    0.6679721762997780    0.1618985015820715 Bi
   0.4939263083421694    0.3320277133288757    0.1890856508033158 Bi
   0.1890857970937493    0.4939259583791859    0.3320277943278749 Bi
   0.6951600883912277    0.8381016345661653    0.5060741427064682 Bi
   0.3048408752841444    0.8109143637648022    0.1429423466778193 Bi
   0.6679725421207385    0.1618982550545465    0.8570577806456710 Bi
   0.8381022069334568    0.5060739312407853    0.6951596255002972 Bi
   0.8728178696642184    0.2536917179868435    0.6438140655188497 O
   0.3808744533668690    0.1271825137419430    0.7709964474443586 O
   0.6098780566472569    0.2290034605274958    0.3561860789569068 O
   0.1894128339234177    0.0000000000019276    0.0000000347709112 O
   0.3561863552604183    0.6098776922532626    0.2290035998291480 O
   0.7463087443647336    0.6191256578948763    0.3901223948075210 O
   0.3901226549173518    0.7463081716336484    0.6191257885747147 O
   0.6191260868017826    0.3901221973665978    0.7463082770212507 O
   0.2290036984586424    0.3561859642658197    0.6098777333645162 O
   0.7709969239513490    0.3808742317341506    0.1271827029072111 O
   0.2536920748313814    0.6438139253449811    0.8728174420306823 O
   0.3970790403606556    0.3970787103154833    0.3970788083681448 O
   0.0000002256202639    0.6029211793031050    0.0000000940429907 O
  -0.0000000000047997   -0.0000000000047997    0.6029211234642753 O
   0.6029214548269332    0.0000000000061251    0.0000001106795539 O
   0.8105878160006466    0.8105871422542075    0.8105873424166068 O
   0.0000000708804994    0.1894127473652894    0.0000000295443923 O
  -0.0000000000015105   -0.0000000000015105    0.1894127298230545 O
   0.1271828603772799    0.7709964290918403    0.3808743400594585 O
   0.6438145461770359    0.8728173758780240    0.2536919488151725 O
