Ga1 As1 O4
1.0
  -1.9668783202697349    1.9668783202697349    5.3702204589319775
   1.9668783202697349   -1.9668783202697349    5.3702204589319775
   1.9668783202697349    1.9668783202697349   -5.3702204589319775
Ga As O
1 1 4
direct
   0.0000000000000000    0.0000000000000000    0.0000000000000000 Ga
   0.2500000252903211    0.7500012796544417    0.5000012543641207 As
   0.8707834221148670    0.1421632344341253    0.7286201876807419 O
   0.4135455554594987    0.1421632344341254    0.2713823210253735 O
   0.8578380705000573    0.5864557494525581    0.7286201876807419 O
   0.8578380705000573    0.1292178828193156    0.2713823210474998 O
