Y1 Mg3
1.0
   3.3136875822599552    0.0000000018836737    0.0000000000000000
  -1.6568427877750878    2.8697367095928126    0.0000000000000000
   0.0000000000000000   -0.0000000000000000   10.7474399437934398
Y Mg
1 3
direct
   0.6666679577240349    0.3333333817582009    0.5000000026148813 Y
   0.6666679577240349    0.3333333817582009    0.0000000000000000 Mg
   0.3333341861547546    0.6666677641739324    0.2383706488748081 Mg
   0.3333341861547546    0.6666677641739324    0.7616293563549544 Mg
