Ta4 Al4 Zn4
1.0
   5.0124774521927078    0.0010095427916736    0.0000000000000003
  -2.4541819186121554    4.3705746004700705    0.0000000000000003
  -0.0000000000000000   -0.0000000000000000    8.3383199953155547
Ta Al Zn
4 4 4
direct
   0.6649755969317930    0.3350244475084642    0.3152345504852108 Ta
   0.3368316062409457    0.6631678314331122    0.1915600403179104 Ta
   0.3368316062409457    0.6631678314331122    0.8084399602438869 Ta
   0.6649755969317930    0.3350244475084642    0.6847654500765862 Ta
   0.0027307974112405    0.9972680224819541    0.2425857796680357 Al
   0.0027307974112405    0.9972680224819541    0.7574142208937613 Al
   0.6534594186190449    0.8333081165861069    0.5000000002808985 Al
   0.1666911218806002    0.3465404891299151    0.5000000002808986 Al
   0.1658788839420564    0.8341202376258516    0.5000000002808985 Zn
   0.3477044781431154    0.1714925648150593   -0.0000000000000000 Zn
   0.8285076680271620    0.6522950936185788   -0.0000000000000001 Zn
   0.8287272973879856    0.1712730498431186   -0.0000000000000000 Zn
