Ti14 P8
1.0
   7.2807250104114596   -0.0045040707615376    1.8641632689840970
   6.4848722964108561    3.3098955063758928    1.8641632689840968
  -0.0015971088349335   -0.0003834973337566   13.6202114041087992
Ti P
14 8
direct
   0.0000000000000000    0.0000000000000000    0.0000000000000000 Ti
   0.8207065156656257    0.8207115193976060    0.5420801398805581 Ti
   0.1792902152298169    0.1792921202194244    0.4579192262986824 Ti
   0.9967566063017842    0.9967626922181240    0.6620550686847780 Ti
   0.6605950783404799    0.6605981408657923    0.0327883766953756 Ti
   0.3394016525549628    0.3394054987512380    0.9672109894838645 Ti
   0.7939513190838641    0.7939568056117083    0.7945059248434674 Ti
   0.0032401245936583    0.0032409473989064    0.3379442974944624 Ti
   0.8040982695665994    0.8041026350235314    0.3065509859548106 Ti
   0.1958984613288426    0.1959010045934989    0.6934483802244298 Ti
   0.5705989702743669    0.5706035340422816    0.8305481984424816 Ti
   0.4293977606210756    0.4294001055747489    0.1694511677367587 Ti
   0.4999983654477212    0.5000018198085152    0.4999996830896203 Ti
   0.2060454118115788    0.2060468340053224    0.2054934413357733 Ti
   0.0613332585887897    0.0613338965771744    0.1509254214987541 P
   0.1783576565769965    0.1783605938750303    0.8913515484405774 P
   0.8216390743184459    0.8216430457420000    0.1086478177386631 P
   0.3721057813711129    0.3721084101588661    0.3963617955047867 P
   0.6278909495243297    0.6278952294581641    0.6036375706744539 P
   0.3694493569158110    0.3694525987711307    0.6577404080714976 P
   0.6305473739796316    0.6305510408458995    0.3422589581077427 P
   0.9386634723066525    0.9386697430398556    0.8490739446804866 P
