K4 Zn2 O4
1.0
   4.9645046382979245   -0.0000000029840936   -2.2237979638434378
  -1.2137415023357445    5.2145902725098745   -2.7096102069578225
  -0.0233662867700902   -0.0278394721626029    6.6012236298824210
K Zn O
4 2 4
direct
   0.3473849362567947    0.2135544477388591    0.6947706924177477 K
   0.6526136384729138    0.7864453920215468    0.3052279346881223 K
   0.8473845450530211    0.4812168469762450    0.6947704085500495 K
   0.1526140296766873    0.5187829927841607    0.3052282185558203 K
   0.7499992965652302   -0.0000000020755481   -0.0000004691612238 Zn
   0.2499997655217434   -0.0000000006918494   -0.0000001563870746 Zn
   0.4037935510677333    0.7155588259789248    0.8075868341385904 O
   0.5962050236619751    0.2844410137814810    0.1924117929672795 O
   0.0962056737463160    0.9079701817475589    0.1924121730800141 O
   0.9037929009833925    0.0920296580128468    0.8075864540258559 O
