Hg4 N24
1.0
   6.2641210908646601    0.0000000000000000    0.0000000000000000
   0.0000000000000000    6.2834148179561984    0.0000000000000000
   0.0000000000000000    0.0000000000000000   10.6313948360646560
Hg N
4 24
direct
   0.7626028065872256    0.7653715245272246    0.9648396521401049 Hg
   0.2373970192678878    0.2653719079139925    0.0351598929746485 Hg
   0.2373970192678878    0.7653715245272246    0.4648398795827282 Hg
   0.7626028065872256    0.2653719079139925    0.5351596655320260 Hg
   0.9474475891923732    0.6189123330063079    0.4174397063474847 N
   0.6088217606089213    0.2704325704761886    0.8821168139587481 N
   0.8817581213260692    0.1191009273436501    0.1900056095840857 N
   0.8043019913120439    0.6056210596863428    0.2116459577478036 N
   0.1182417045290436    0.6191005439568821    0.8099939355306673 N
   0.5285801671450493    0.8843354293262707    0.5390804232979119 N
   0.0525522366627401    0.1189127163930754    0.5825598387672701 N
   0.4714196587100569    0.3843358127130390    0.4609191218168430 N
   0.5285801671450493    0.3843358127130390    0.9609188943742190 N
   0.9474475891923732    0.1189127163930754    0.0825600662098926 N
   0.6088217606089213    0.7704321870894202    0.6178825037133829 N
   0.1956978345430696    0.1056214430731105    0.7883535873669500 N
   0.3047368840407803    0.1672245248332562    0.3073449374849755 N
   0.3047368840407803    0.6672241414464876    0.1926548350724016 N
   0.0525522366627401    0.6189123330063079    0.9174394789048608 N
   0.3911780652461913    0.2704325704761886    0.3821170414013715 N
   0.1182417045290436    0.1191009273436501    0.6900053821414636 N
   0.1956978345430696    0.6056210596863428    0.7116457303051809 N
   0.4714196587100568    0.8843354293262707    0.0390806507405340 N
   0.6952629418143323    0.1672245248332562    0.8073447100423528 N
   0.3911780652461913    0.7704321870894202    0.1178827311560057 N
   0.6952629418143323    0.6672241414464876    0.6926546076297782 N
   0.8043019913120439    0.1056214430731105    0.2883538148095732 N
   0.8817581213260692    0.6191005439568821    0.3099941629732908 N
