Na2 Ca1 Be1
1.0
   3.5728329767242251    0.0000000000000000   -0.0000000000000000
   0.0000000000000000    3.5728329767242251    0.0000000000000000
  -0.0000000000000000    0.0000000000000000    8.9562977707743006
Na Ca Be
2 1 1
direct
   0.0000000000000000    0.0000000000000000    0.0017471928651095 Na
   0.4999995834224208    0.4999995834224208    0.3103175303707044 Na
   0.4999995834224208    0.4999995834224208    0.6813416701371262 Ca
   0.0000000000000000    0.0000000000000000    0.5065949799778467 Be
