La1 Pd1 O4
1.0
   3.6515409603970030   -0.0155250033026239    5.1597807820331827
   1.6297566421161320    3.2677034288109672    5.1597807820331827
  -0.0252114613549267   -0.0155250048122669    6.3211121498365728
La Pd O
1 1 4
direct
   0.0000000000000000    0.0000000000000000    0.0000000000000000 La
   0.5000014428098624    0.4999979542609707    0.5000001983876936 Pd
   0.6122252153145672    0.6122209437717006    0.6122236915856601 O
   0.1575592238485815    0.1575581245456422    0.1575588317071469 O
   0.8424436617711434    0.8424377839762990    0.8424415650682398 O
   0.3877776703051580    0.3877749647502413    0.3877767051897263 O
