Ti1 Al1 F5
1.0
   5.0389027216685047    0.0021525220884699   -1.5297963219881543
  -0.8927204743573092    3.2633399968343051   -4.0354038556570071
  -0.0240609526609697   -0.0021525220849097    5.2659508634024323
Ti Al F
1 1 5
direct
   0.0000000000000000    0.0000000000000000    0.0000000000000000 Ti
   0.4999997068813952    0.4999996140107594   -0.0000003640770114 Al
   0.7957223030321147    0.4999996138913882    0.2957220515896784 F
   0.2042774392391443    0.5000003871128227    0.7042777440830538 F
   0.2665600662944262    0.2665600167831915   -0.0000001940968982 F
   0.7334393474683640    0.7334392112383272   -0.0000005340571246 F
   0.4999998221227373   -0.0000000002018296    0.4999995169651881 F
