Be2 In1 Ga1
1.0
   3.2740550082735824    0.0000000000000000    0.0000000000000000
   0.0000000000000000    3.2740550082735824    0.0000000000000000
  -0.0000000000000000   -0.0000000000000000    5.7953319363766189
Be In Ga
2 1 1
direct
   0.0000000000000000    0.0000000000000000    0.8122545389076609 Be
   0.0000000000000000    0.0000000000000000    0.1877451269653830 Be
   0.5000007623156002    0.5000007623156002    0.4999998329365219 In
   0.5000007623156002    0.5000007623156002    0.0000000000000000 Ga
