Hg8 P4 O14
1.0
   4.8702047733076466    0.0000000000000000    0.0000000000000000
   0.0000000000000000    9.0987102119297987   -1.5235705830333550
   0.0000000000000000   -0.0709527620753859    9.8148035534516396
Hg P O
8 4 14
direct
   0.6752937988493535    0.5162634377779035    0.1001689109672497 Hg
   0.3247052210465509    0.4837368404743559    0.8998308295796381 Hg
   0.3247052210465509    0.0162635997607568    0.6001687253853195 Hg
   0.4378534431183138    0.3154335044021989    0.3777417883191974 Hg
   0.4378534431183138    0.1845666347239313    0.1222580819542465 Hg
   0.5621455767775912    0.6845667738500613    0.6222579522276899 Hg
   0.5621455767775912    0.8154336435283279    0.8777416585926417 Hg
   0.6752937988493535    0.9837366784915027    0.3998310151615681 Hg
   0.1066330263078734    0.8484570228307881    0.1430123409387543 P
   0.1066330263078734    0.6515430934386180    0.3569875851900636 P
   0.8933659935880307    0.1515432554214710    0.8569873996081333 P
   0.8933659935880307    0.3484571848136421    0.6430121553568243 P
   0.9539374733223915    0.5204875221101513    0.2715429540182843 O
   0.6387873236079111    0.0888109389842924    0.9191514021095868 O
   0.0460615465735116    0.4795127561421087    0.7284567865286031 O
   0.9362124203925875    0.7439470842579686    0.0393094031251386 O
   0.9362124203925875    0.7560530320114376    0.4606905230036791 O
   0.0637865995033166    0.2560531939942904    0.9606903374217495 O
   0.0637865995033166    0.2439472462408223    0.5393092175432080 O
   0.2422961889626596    0.7500000581347032    0.2499999630644089 O
   0.7577028309332440    0.2500002201175563    0.7499997774824788 O
   0.3612116962879933    0.5888107770014389    0.4191515876915158 O
   0.3612116962879933    0.9111893392679672    0.0808483384373017 O
   0.6387873236079111    0.4111895012508200    0.5808481528553708 O
   0.0460615465735116    0.0204876840930042    0.7715427684363544 O
   0.9539374733223915    0.9795125941592547    0.2284569721105338 O
