Nb  V Fe 
 1.0000000000000000
    -0.0000000000000000    3.0086175494789575    3.0086175494789575
     3.0086175494789575    0.0000000000000000    3.0086175494789575
     3.0086175494789575    3.0086175494789575    0.0000000000000000
 Nb  V   Fe 
   1   2   1
Cartesian
  4.5129299999999999  4.5129299999999999  4.5129299999999999
  3.0086200000000001  3.0086200000000001  3.0086200000000001
  0.0000000000000000  0.0000000000000000  0.0000000000000000
  1.5043100000000000  1.5043100000000000  1.5043100000000000
