 H  C  S  O 
 1.0000000000000000
     5.0140941885822770    0.0100760013629515   -0.0295020768112936
    -0.0192604639755484    6.1748980676304797   -0.9891778220746089
     0.0248413432944685    0.6534619254791263    6.7360935177482615
 H   C   S   O  
   4   8   4   2
Cartesian
  3.2828053338591441  6.5446201336390084  4.8244556411088180
  3.2733765269810240  6.2356280954059633  3.1323870704243966
  3.2800163808520026  3.1314366919336756  1.9498760305153733
  3.2705931525841008  2.8212948995996459  0.2580197648708479
  1.9683586503733026  1.5786659227798234  1.3653192726571060
  1.9711412979939424  4.9922717620162844  4.2389004480998818
  0.7730445960102155  5.7708231329399435  4.1249486120343004
  0.7702650506886405  2.3571737813469400  1.2510211597918872
  4.5908876604277609  1.5838992774442517  1.3499973684259081
  3.2802355546279554  5.7004755971145080  4.1047212547696770
  4.5936751011536252  4.9975038141232133  4.2235792484119239
  3.2774580157449660  2.2868039727420881  1.2307199375735041
  4.7673224529879468  3.3346464245939909  4.4964132710505762
  4.7452836655640143  6.0960229053743644  0.6341301140541633
  1.8075448084777992  3.3286734893981906  4.5131430215846962
  1.7855081541110704  6.0900491485396318  0.6508620216147204
  0.7665586552167926  3.6205542576210430  1.0564074515895183
  0.7886048574656779  0.8594229807474242  4.9201477157227202
