Tl Cu Sn Te 
 1.0000000000000000
     6.8105761641331020   -0.0313790359386366    5.1225454397955312
     4.0480955825428966    5.4821635636920876    1.8560288128175995
    -0.0040868582626220    0.0081568236792266    6.9785742502329215
 Tl  Cu  Sn  Te 
   2   2   1   4
Cartesian
  3.4027081955332523 -0.0105370670454612  2.5647391405317017
  8.8300031955332514  2.7189329329545404  9.5433141405317023
  5.4691364338003385  2.6459594747175514  8.4481194815260565
  4.8656106294702761  3.8505168044073712  6.2065306624379311
  6.7832392051869492  0.0231885331364164  5.1592345579131083
  6.6176340327901633  0.3537129404836294  7.9699031473483659
  5.5936961508913425  2.3973569271018031  4.1668384050667191
  6.6538988527796183  5.0252499684307850  7.8820035253195879
  2.8540533505848016  3.1213971641133664  7.8820000272748283
