Ba La 
 1.0000000000000000
     1.9143232070592791   -3.3157039396841688    0.0000000000000000
     1.9143232070592795    3.3157039396841625   -0.0000000000000000
    -0.0000000000000000   -0.0000000000000000   12.6043178944076146
 Ba  La 
   1   3
Cartesian
  0.0000000000000000  0.0000000000000000  0.0000000000000000
  0.0000000000000000  0.0000000000000000  6.3021599999999998
  1.9143200000000000 -1.1052355437999786  9.2262372376207367
  1.9143200000000000  1.1052355437999788  3.3780827623792624
