Rb Na 
 1.0000000000000000
    -3.6432414127962796    3.6432414127962796    5.2789795656529499
     3.6432414127962796   -3.6432414127962796    5.2789795656529499
     3.6432414127962796    3.6432414127962796   -5.2789795656529499
 Rb  Na 
   3   1
Cartesian
  0.0000036432399908  3.6432363567600090  2.6394847210200134
  3.6432363567600090  0.0000036432399908  2.6394847210200134
  0.0000000000000000  0.0000000000000000  5.2789799999999998
  0.0000000000000000  0.0000000000000000  0.0000000000000000
