Yb Zn Ir 
 1.0000000000000000
    -0.0000000000000000    3.4124532408611898    3.4124532408611898
     3.4124532408611898    0.0000000000000000    3.4124532408611898
     3.4124532408611898    3.4124532408611898    0.0000000000000000
 Yb  Zn  Ir 
   2   1   1
Cartesian
  0.0000000000000000  0.0000000000000000  0.0000000000000000
  3.4124500000000002  3.4124500000000002  3.4124500000000002
  5.1186750000000005  5.1186750000000005  5.1186750000000005
  1.7062250000000001  1.7062250000000001  1.7062250000000001
