Yb Tm Se 
 1.0000000000000000
     3.9937303521974337   -0.0000000000000000    0.0000000000000002
     0.0000000000000021   13.3292295413038584    0.0000000000000008
    -0.0000000000000000   -0.0000000000000000   13.5835165371366209
 Yb  Tm  Se 
   4   8  16
Cartesian
  0.9984324999999999  4.9216016685666943  7.9526400037767653
  0.9984324999999999 11.5862166685666956 12.4226399962232339
  2.9952974999999999  8.4076283314333065  5.6308799962232321
  2.9952974999999999  1.7430133314333067  1.1608800037767686
  2.9952974999999999  4.6865652231510344  4.0842749288831497
  2.9952974999999999 11.3511802231510348  2.7074850711168521
  0.9984324999999999  1.9780497768489662 10.8760349288831488
  0.9984324999999999  8.6426647768489673  9.4992450711168512
  2.9952974999999999 11.9025786905281681  7.8867993354594450
  0.9984324999999999  8.0912663094718340  1.0950393354594403
  0.9984324999999999  1.4266513094718321  5.6967206645405604
  2.9952974999999999  5.2379636905281695 12.4884806645405551
  0.9984324999999999  6.2643751012536910  5.2364327889647564
  0.9984324999999999  7.1345430517855029 11.9431497558296265
  0.9984324999999999  0.4699280517855026  8.4321302441703736
  2.9952974999999999  0.4002398987463070 12.0281927889647609
  2.9952974999999999  7.0648548987463053  8.3470872110352392
  0.9984324999999999 12.9289901012536959  1.5553272110352423
  2.9952974999999999  3.2379863776495568  6.5072730236457428
  0.9984324999999999  9.5217018681927463  3.5606690057064356
  0.9984324999999999 10.0912436223504418  7.0762469763542626
  0.9984324999999999  3.4266286223504410 13.2990330236457375
  2.9952974999999999  3.8075281318072514 10.0228509942935666
  2.9952974999999999 10.4721431318072540 10.3524290057064334
  2.9952974999999999 12.8593019482144975  5.1513897558296255
  0.9984324999999999  2.8570868681927486  3.2310909942935657
  2.9952974999999999  9.9026013776495603  0.2844869763542586
  2.9952974999999999  6.1946869482144962  1.6403702441703756
