Si  O  F 
 1.0000000000000000
     2.7066404308730649    0.0000000000000000    0.0000000000000000
     0.0000000000000000    2.7066404308730649    0.0000000000000000
     0.0000000000000000    0.0000000000000000    5.6330722607333046
 Si  O   F  
   1   1   2
Cartesian
  1.3533188865553984  1.3533188865553984  1.2887220927211038
  0.0000000000000000  0.0000000000000000  1.2341357114113660
  0.0000000000000000  0.0000000000000000  3.4603639752638293
  1.3533188865553984  1.3533188865553984  5.3392471482090347
