Na  V Se 
 1.0000000000000000
     3.4807945630958490   -0.0597397161970851   13.2602581616781023
     1.6610831000271473    3.0594611550031385   13.2602581616780935
    -0.1024009427693977   -0.0597397144592405   13.7091167533586944
 Na  V   Se 
   1   2   4
Cartesian
  4.6191796582821851  2.6947865175815036 36.8744996492567552
  0.0314743956152713  0.0183618701214582  0.2512572971346717
  2.4898923283890957  1.4525800625100207 19.8765886103803915
  0.9998427159163922  0.5832989556322142  7.9816553157870329
  3.5654886722090646  2.0800729811907219 28.4629783903969802
  1.5211291394560267  0.8874126143062523 12.1430383901757768
  3.9951298416319405  2.3307216496578156 31.8927655648682098
