Pr Cd Pd 
 1.0000000000000000
     7.8558827369517452    0.0000000000000000   -0.0000000000000000
     0.0000000000000000    7.8558827369517452   -0.0000000000000000
    -0.0000000000000000    0.0000000000000000    3.9375423958116120
 Pr  Cd  Pd 
   4   2   4
Cartesian
  2.5579126762740021  6.4858526762740016  1.9687699999999999
  6.4858526762740016  5.2979673237259988  1.9687699999999999
  1.3700273237259979  2.5579126762740021  1.9687699999999999
  5.2979673237259988  1.3700273237259979  1.9687699999999999
  0.0000000000000000  0.0000000000000000  0.0000000000000000
  3.9279400000000000  3.9279400000000000  0.0000000000000000
  2.9309159102217439  0.9970240897782561  0.0000000000000000
  6.8588559102217435  2.9309159102217439  0.0000000000000000
  0.9970240897782561  4.9249640897782561  0.0000000000000000
  4.9249640897782561  6.8588559102217435  0.0000000000000000
