Ca Bi Au 
 1.0000000000000000
     5.6973887100251686    0.0000000001208343    0.0000000000000004
    -2.8486944642752601    4.9340832950336138    0.0000000000000003
     0.0000000000000000    0.0000000000000000   13.9963568273028098
 Ca  Bi  Au 
   2   4  12
Cartesian
  0.0000000000000000  0.0000000000000000  8.1737438006682392
  2.8486966666666467  1.6446933333333449 12.7870661770169072
  2.8486966666666467  1.6446933333333449  9.3147200862522954
  0.0000033333333536  3.2893866666666547  0.1162215916034750
  0.0000000000000000  0.0000000000000000  4.5747640917627850
  0.0000033333333536  3.2893866666666547  3.5443237365226281
  1.4344540481317249  0.8281844845053969  1.7033294117978472
  0.0000000000000000  0.0000000000000000 13.3849911803574990
  0.0000033333333536  3.2893866666666547  8.7563389674576300
  2.8486966666666467  1.6446933333333449  4.0888793199636746
 -0.0000011821119654  1.6446106988525642 11.0946040054858805
 -1.4244191699560245  4.1117771176137605 11.0946040054858805
  2.8486954728114169  3.2777159650697136  1.7033294117978472
 -1.4239545307923738  2.4672621477811871  6.4444382643012119
  1.4239652286327267  2.4672621477809504  6.4444382643012119
  4.2629319329768212  0.8281844845049110  1.7033294117978472
  2.8486978482396248 -0.0004492296421270  6.4444382643012119
  1.4244218059880724  4.1117771176136264 11.0946040054858805
