Nb  B  O 
 1.0000000000000000
     3.0614812699091023   -0.0000000000000000    0.0000000000000000
     0.0000000000000000    3.0614812699091023    0.0000000000000000
     0.0000000000000000   -0.0000000000000000    4.1257410423272720
 Nb  B   O  
   1   1   2
Cartesian
  1.5307383759633575  1.5307383759633575  1.6579108684462158
  0.0000000000000000  0.0000000000000000  0.0298916893473576
  0.0000000000000000  0.0000000000000000  2.7652648130749040
  1.5307383759633575  1.5307383759633575  3.8396725576689663
