Cr  H  O 
 1.0000000000000000
     0.0000000000000000    4.7612730399029539   -0.0961357735423853
     2.9526619875998712    0.0000000000000000    0.0000000000000000
     0.0000000000000000   -1.7641425699415416   -4.8083471726505991
 Cr  H   O  
   2   1   4
Cartesian
  0.0000000000000000  0.0000000000000000  0.0000000000000000
  1.4763299999999999 -0.8820700000000000 -2.4041750000000000
  1.4763299999999999  2.3806349999999998 -0.0480700000000000
  0.0000000000000000  2.7426315780750157 -3.0203770803447001
  1.4763299999999999 -0.5023277767384936 -4.3846808010425802
  1.4763299999999999  3.4994577767384905 -0.5198091989574219
  0.0000000000000000  0.2544984219249839 -1.8841129196552990
