Na  Y Br 
 1.0000000000000000
     0.0000000000000000    7.0926317626943458   -0.0161396450863773
     7.6811115906389862    0.0000000000000000    0.0000000000000000
     0.0000000000000000   -6.9595068883978195  -10.6644948881125146
 Na  Y   Br 
   6   2  12
Cartesian
  3.8405550000000002  3.5463149999999999 -0.0080700000000000
  4.5740000964927914 -0.1702383391272670 -7.9458717054317809
  0.7334450964927917 -3.1763966608727303 -8.0670032945682202
  0.0000000000000000  0.0665600000000000 -5.3403150000000004
  6.9476649035072091  3.3095166608727329 -2.6136267054317810
  3.1071099035072089  0.3033583391272695 -2.7347582945682194
  3.8405550000000002 -3.4797549999999999 -5.3322450000000003
  0.0000000000000000  0.0000000000000000  0.0000000000000000
  3.3968550819649037 -4.5085238745569729 -7.9130917398411507
  7.2374100819649048  1.1618888745569735 -8.0997832601588513
  4.2842549180350957  4.6416438745569746 -2.7675382601588483
  0.4436999180350967 -1.0287688745569741 -2.5808467398411516
  1.4471226016512519  2.4314977133319196 -4.5230309123571395
  1.3696515679994921  2.2927329074201919 -0.7660410311008634
  6.2339873983487513 -2.2983777133319161 -6.1575990876428595
  2.3934323983487489 -1.0482572866680810 -9.8552759123571416
  6.3114584320005092 -2.1596129074201880 -9.9145889688991335
  5.2102065679994913  1.3201420925798095 -4.5823439688991368
  5.2876776016512492  1.1813772866680841 -0.8253540876428593
  2.4709034320005099 -1.1870220925798107 -6.0982860311008675
