Rb  F 
 1.0000000000000000
     3.3888788013794011    0.0723016928932301   -0.2725563355976700
    -1.0265982052709943    3.2304525459178182   -0.2725563501379665
    -0.4578396886533918   -0.6401153085553355    5.5982513658627244
 Rb  F  
   1   3
Cartesian
  0.5333302628004750  0.7456588863561373  0.5634564184511852
  0.3044494223630587  0.4256536357405347  3.3626287525890559
  1.8281333318645050  2.5559470228497134  1.8623746303911912
  1.1429669829719626  1.5980004550536140  4.3178001985685652
