 Y Ni 
 1.0000000000000000
     4.1809924973044694    0.0000000000000000    0.0000000000000000
    -0.0000000000000000    5.4256688720378472    0.0000000000000000
     0.0000000000000000    0.0000000000000000    7.0427507096928226
 Y   Ni 
   4   4
Cartesian
  3.1357425000000001  4.6978307837666575  5.7700494142211891
  1.0452475000000001  1.9849957837666568  4.7940755857788107
  1.0452475000000001  0.7278392162333434  1.2727005857788116
  3.1357425000000001  3.4406742162333432  2.2486744142211874
  3.1357425000000001  2.0129797783455219  6.7777989806934755
  1.0452475000000001  4.7258147783455238  3.7863260193065242
  1.0452475000000001  3.4126902216544766  0.2649510193065262
  3.1357425000000001  0.6998552216544771  3.2564239806934729
