Ba Ca  B  O 
 1.0000000000000000
     4.9978247047862672    0.0000359026124521    2.2664212713248038
     1.9728993823559484    4.7081826763768868    2.2932024222832772
     0.0295294686958500    0.0237864693315019    6.5784774989642658
 Ba  Ca  B   O  
   2   1   2   6
Cartesian
  1.5829724650472656  1.2347022333571485  3.1529685014222721
  5.4172775000167848  3.4973077549431957  7.9851303401974221
  0.0000000059150439 -0.0000000206857174 -0.0000005779513716
  4.0613339659729961  2.9671590245676160  4.3315288672753178
  2.9389159041876036  1.7648509909118473  6.8065698774940300
  4.3643702078507687  1.7870137520984375  3.6632799238270399
  4.1730958877567543  1.1402985531526668  6.9964670948925400
  5.0173945863799538  3.5917895921273586  5.1347308160446712
  2.6358796853733319  2.9449961694319091  7.4748185979663679
  1.9828556493577150  1.1402203655958274  6.0033681908417647
  2.8271541126117845  3.5917115607097072  4.1416317895099244
