Li Fe  O  F 
 1.0000000000000000
     5.7969401645161254    0.1203804264697775   -1.7257915543055906
    -3.0560768314120201    5.1549363992645745   -0.0372661052082323
    -0.0501180196933425   -0.0889276512704158   10.2963613793568864
 Li  Fe  O   F  
   5   7   3  13
Cartesian
  0.5097509657493194  3.8021039237542156  1.8071199604634776
  4.4650459338415711  0.9756008846209178  4.3214778414602888
 -1.9387161042965941  4.1293231859562933  4.2978151660237822
 -2.2064087754386557  3.8976171266858910  7.5978752429309759
 -0.3062659141658958  1.5808142180718430  9.3500210170081335
  3.2716138469162273  3.7027127438989726 -0.8568455099860190
  2.9283364541954482  0.1695947832122401 -0.7538276980815821
  4.7821119478643634  1.3713564075307720  0.8604604610093800
  2.2228900452138975  1.2792686378765550  1.5957673818185056
  1.2670364530422142  2.5451657774760856  4.5231583333076406
  1.9500397450107694  1.4498160450771811  6.6864162492931083
  0.6200815238474103  3.6604547953356894  6.6603079333647770
  0.1715854126007146  1.8734679908172596  5.9855754994218993
 -1.0058746370574594  4.6324227309432295  0.8179725603119797
  3.1298197601005193  2.0363466953437146 -0.0438715666119402
  3.9438748166089361  0.5298242717613546  2.5837855598089177
  1.6798765059324621  4.5614860828769679  0.0567970963211649
 -0.5235728411478940  3.1408667455692072  3.4011141560458773
  0.2424708448661418  1.9132061989066087  0.9512785031959138
  0.9510544043846895  0.6890348506566397  3.3762749180448846
  2.2320011541218112  3.0975490370655465  2.6352480801739500
  1.7798744229320622  4.5143632868879209  5.1390404737349185
  2.5426758928102768  3.3586427811084123  7.5456614307053735
  3.2351015058582129  2.0917745585211729  5.1718750394049859
  1.1077887742621904  0.6054901696199569  8.4807654643181181
 -1.2009643497776414  4.5530139137308465  5.9974907602988887
  3.8090379588424566  0.5835145871487027  7.6618294269093061
 -0.4368172407574892  3.3316225066457990  8.4860540781632388
