Tl Cr  I 
 1.0000000000000000
     9.1779353431762516   -0.0527302807552346    0.0000000000000000
    -0.3006496501066102    9.1731614893873807    0.0000000000000000
     0.0000000000000000    0.0000000000000000    9.6708224336912423
 Tl  Cr  I  
   8   2  12
Cartesian
  1.0300679497898577  7.8779191017467598  2.4177050000000002
  7.8472220502101413  1.2425108982532387  7.2531150000000011
  1.0300679497898577  7.8779191017467598  7.2531150000000011
  3.1086067774514787  3.1937483749268920  2.4177050000000002
  5.7686832225485203  5.9266816250731065  2.4177050000000002
  5.7686832225485203  5.9266816250731065  7.2531150000000011
  3.1086067774514787  3.1937483749268920  7.2531150000000011
  7.8472220502101413  1.2425108982532387  2.4177050000000002
  4.5889699999999998 -0.0263650000000000  0.0000000000000000
 -0.1503250000000000  4.5865799999999997  4.8354100000000004
  1.2901043496216347  1.6483707267485634  4.8354100000000004
  3.1554883852465418  6.5414525297479766  0.0000000000000000
 -0.1503250000000000  4.5865799999999997  2.0902024452314039
  4.5889699999999998 -0.0263650000000000  6.9256124452314030
 -0.1503250000000000  4.5865799999999997  7.5806175547685983
  5.7218016147534598  2.5789774702519539  0.0000000000000000
  6.4538248041656514  3.3310500348766867  4.8354100000000004
  2.4234651958342814  5.7893799651233104  4.8354100000000004
  1.6129184221219519  1.3341629043497147  0.0000000000000000
  7.2643715778780447  7.7862670956502820  0.0000000000000000
  7.5871856503783679  7.4720592732514337  4.8354100000000004
  4.5889699999999998 -0.0263650000000000  2.7452075547685983
