Pm Pr 
 1.0000000000000000
     4.6808402911546372   -0.0213813471260536   -4.2103965086055100
    -0.9431572943587127    4.5848857468206896   -4.2103965086055100
     0.0175121333551983    0.0213813471294901    6.2958238472921018
 Pm  Pr 
   3   1
Cartesian
  3.2835949999999996  1.1408775000000000 -1.0624899999999999
  0.4715950000000000  3.4440124999999995 -1.0624899999999999
  1.8688400000000001  2.2817550000000000 -4.2103999999999999
  0.0000000000000000  0.0000000000000000  0.0000000000000000
