Cd Au 
 1.0000000000000000
     2.9763386175534365    0.0000000068488035    0.0000000000000002
    -1.4881696132581328    2.5775846772734798    0.0000000000000002
    -0.0000000000000002   -0.0000000000000006   26.9928777825546611
 Cd  Au 
   3   8
Cartesian
  0.0000000000000000  0.0000000000000000 19.8737383830570238
  0.0000000000000000  0.0000000000000000 14.9657056132556985
  0.0000000000000000  0.0000000000000000 10.0610819943264911
  0.0000000000000000  0.0000000000000000  5.2309640855152795
  0.0000000000000000  0.0000000000000000  0.4533917687297540
  1.4881699999999896  0.8591933333333395 25.0477313407430522
  1.4881699999999896  0.8591933333333395 22.2947703025411954
  1.4881699999999896  0.8591933333333395 17.4236867128529695
  1.4881699999999896  0.8591933333333395 12.5088823883186091
  1.4881699999999896  0.8591933333333395  7.6370632619678771
  1.4881699999999896  0.8591933333333395  2.8414401629319888
