Li Co  O 
 1.0000000000000000
     4.7934540904079608   -0.0104426699154482   -1.0701944557482550
    -1.2191974136060564    4.4910756561702030   -1.6018307692996772
     0.0398030300416116    0.0096446245194345    7.5316580472965171
 Li  Co  O  
   5   5  10
Cartesian
 -0.0576000799351213  4.0839995049515165  1.4191467345715914
  1.5656633821710957  1.3257625004525910  4.9783740389117401
  1.8070250000000001  2.2451400000000001  2.4298199999999999
  2.0483866178289056  3.1645174995474057 -0.1187340389117385
  3.6716500799351217  0.4062804950484838  3.4404932654284073
  1.3272997860030777  0.4735314898023241  0.2799158144873799
  2.2867502139969225  4.0167485101976768  4.5797241855126201
  3.9597570183143906  1.3329359398590732  0.8647780977099563
 -0.3457070183143910  3.1573440601409279  3.9948619022900442
 -0.6096000000000000  2.2455400000000001 -0.8009150000000000
  2.8574483135026312  1.2519466335998464 -0.7328249196016305
  0.1149314644353156  0.4408792122741230  6.3226796824445834
  0.7566016864973698  3.2383333664001528  5.5924649196016274
  0.2557677454418149  1.4440051126877789  3.4783385612510735
  0.5164144599925432  2.1242034768693867  0.7511858730100054
  1.0836954452095704  4.0225978562461959  3.1006863327621517
  2.5303545547904300  0.4676821437538025  1.7589536672378527
  3.0976355400074582  2.3660765231306149  4.1084541269899928
  3.3582822545581861  3.0462748873122205  1.3813014387489251
  3.4991185355646834  4.0494007877258777 -1.4630396824445837
