Li Bi  F 
 1.0000000000000000
     1.9945407266939830    4.4005527783508711    0.0037576662668550
    -3.5494673275455573    4.2838558278263159    0.0017578828989409
    -0.9953454877333879   -2.1957531973439592    4.9987108453253031
 Li  Bi  F  
   2   1   5
Cartesian
 -1.8046435739297790  2.0670531693051499  2.4959574786814955
 -0.8121680768725019  4.2694708797425287  2.5069247658456861
  0.0511201573141231  0.1089260088633307 -0.0014816085107084
 -1.4341605682011465  5.8833709967774670  3.1250587350285421
 -1.8747573945752920  3.4307720218514515  1.2673551565528356
 -0.7441861386002308  2.9104331295552144  3.7381053185671704
 -1.1809110242121730  0.4560956554499996  1.8772906261090778
  1.1460726412369877  2.5401252495149231  0.0053544994959452
