Ga Tc 
 1.0000000000000000
     4.8566683302705886   -0.9898353430474581    1.0538708497582805
    -3.2169809371568392    3.7706804073009699   -1.0538707340388065
     1.0052796116173117   -0.5927492462359756    4.3535087234334435
 Ga  Tc 
   3   1
Cartesian
  0.3595355233987516  1.6618353138359083  1.6333459562526271
  3.6875022318361563 -0.3004558197329599  0.5807792854418998
  2.4083439751756379  0.4537827347216775  2.7733432828281197
 -2.1707217304105408  3.1537677711753735 -0.6339585245226450
