Tb Rb Cu Cl 
 1.0000000000000000
     6.3076699085948587   -0.0000000000000000    3.6417349196865452
     2.1025566361982864    5.9469282211383394    3.6417349196865452
    -0.0000000000000000   -0.0000000000000000    7.2834698393730886
 Tb  Rb  Cu  Cl 
   1   2   1   6
Cartesian
  0.0000000000000000  0.0000000000000000  0.0000000000000000
  6.3076724999999998  4.4601974999999996 10.9251975000000012
  2.1025575000000001  1.4867325000000000  3.6417324999999998
  4.2051150000000002  2.9734650000000000  7.2834649999999996
  5.2344576992051932  1.5177530261909100  5.5005897198337133
  2.1464271537518647  1.5177530261909100  7.2834674478377481
  3.1757723007948062  4.4291769738090903  9.0663402801662869
  3.1757723007948062  4.4291769738090903  5.5005897198337133
  5.2344576992051932  1.5177530261909100  9.0663402801662869
  6.2638028462481348  4.4291769738090903  7.2834625521622520
