La Ag Ge 
 1.0000000000000000
     4.5890427178838378   -0.0000000020222690   -0.0000000000000000
    -2.2945208624285636    3.9742269453409782    0.0000000000000000
     0.0000000000000000   -0.0000000000000000    7.9087282105417431
 La  Ag  Ge 
   2   2   2
Cartesian
  0.0000000000000000  0.0000000000000000  1.9237255263236130
  0.0000000000000000  0.0000000000000000  5.8780905263236134
  2.2945222945199779  1.3247420085900128  4.0299062131232546
 -0.0000022945199780  2.6494879914099871  0.0755412131232563
  2.2945222945199779  1.3247420085900128  7.5671330685530886
 -0.0000022945199780  2.6494879914099871  3.6127680685530890
