 B  N 
 1.0000000000000000
     3.5507086337155074   -0.2029913631341207    0.0000000000000000
    -1.2611745799982113    4.5805420537174966    0.0000000000000000
     0.0000000000000000    0.0000000000000000    4.9351031667048959
 B   N  
   4   4
Cartesian
  2.5956156583826462  1.4674105326766393  1.7632745782476238
 -0.3060756583826463  2.9101394673233605  3.1718254217523776
  2.0998643416173532  0.5183744673233617  4.2308245782476233
  0.1896756583826468  3.8591755326766393  0.7042754217523759
 -0.2672416370684306  2.9773952906931975  1.6965461140728362
  2.1386983629315695  0.5856302906932001  0.7710038859271630
  2.5567816370684309  1.4001547093067994  3.2385538859271605
  0.1508416370684301  3.7919197093068027  4.1640961140728399
