Ta Mn  O 
 1.0000000000000000
     5.0414868308173144   -0.0542149162920527   -0.0921578680270049
    -0.0590733298246635    5.6325490909084586    0.0689482765079725
     0.1899496934844384    0.1110946126714104    9.2126872003978093
 Ta  Mn  O  
   4   4  16
Cartesian
  3.7555421984246689  1.8732799621765337  2.2681087926481993
  3.9392108326128898  1.8733055598731776  6.8227539640292472
  1.2292657075365812  3.8383415055318060  2.3789615095376315
  1.4107120669070723  3.8401976643455336  6.9027806607330096
  3.8251960341033260  4.8363417274503782  4.5970863943329263
  1.2396669741265476  0.8764892245066582 -0.0140360797602803
  3.7414381652802597  4.7106292078590988 -0.0151194765413309
  1.3456356441101054  0.8849817343702806  4.5936256182609370
  3.0707713980129796  3.4692531580263104  5.7944673943228926
  2.8831128994260427  3.5326915924457469  1.2738956207254055
  0.5432638781638376  2.1860348418960087  5.8336350119559377
  0.3415120918311060  2.2776017924747625  1.3411847720581112
  4.8459222144888683  3.4274118516692709  7.8699722210663232
  4.6143596908049824  3.5162418445550911  3.3704172891424804
  4.8267025646476114  0.6676928942763733  8.0849427462289594
  3.1345794823832231  0.5746373556117739  5.6293207558200908
  0.4731686964948684  5.0104770512883094  5.6808582959364893
  0.3603644379175588  5.0501958903935975  1.1234792104789313
  2.1138039097658101  2.2190267486267259  3.3765182840780037
  2.8479180719014239  0.7497312801666954  1.0178448502424395
  2.3167891943539107  4.9586173058251219  8.1510402094523542
  2.1338553875315722  5.0159242912662947  3.6200688423461083
  4.6065237940377903  0.6006481740474656  3.4591638918724210
  2.2791645821569424  2.1723174497369504  7.9000994053526545
