Ca Ti  S 
 1.0000000000000000
     3.4222117492517197   -5.9274454748705843   -0.0000000000000000
     3.4222117492517197    5.9274454748705843   -0.0000000000000000
     0.0000000000000000   -0.0000000000000000   12.5195269587320581
 Ca  Ti  S  
   1   8  16
Cartesian
  0.0000000000000000  0.0000000000000000  6.2597649999999998
  1.7333587888940201 -2.9508767507400964  9.6668903560074568
  5.1110612111059792  2.9508767507400964  2.8526396439925361
  3.4222100000000015 -0.0256964985198038  9.6668903560074568
  3.4222100000000011  0.0256964985198040  2.8526396439925361
  5.1110612111059792 -2.9508767507400964  9.6668903560074568
  1.7333587888940205  2.9508767507400959  2.8526396439925361
  0.0000000000000000  0.0000000000000000  9.7344393239182647
  0.0000000000000000  0.0000000000000000  2.7850906760817349
  1.7177623155618460  0.9917519417163693  1.4317809657814442
  1.7172042058659163  0.9914257648650501  8.2182790651644204
  3.4222100000000002 -1.9758206182999620  1.4773355654473510
  3.4222100000000002 -1.9758206182999620  8.2047742872681990
  5.1266576844381548  0.9917519417163672  1.4317809657814442
  5.1272157941340843  0.9914257648650482  8.2182790651644204
  1.7177623155618462 -0.9917519417163693 11.0877490342185556
  5.1266576844381557 -0.9917519417163667 11.0877490342185556
  3.4222100000000002  1.9758206182999620 11.0421944345526466
  3.4222100000000002  1.9758206182999620  4.3147557127317988
  3.4222099999999993  3.9445866153699276  8.2182790651644204
  5.1272157941340835 -0.9914257648650477  4.3012509348355863
  3.4222100000000024 -3.9439461165672678 11.0877490342185556
  3.4222099999999993 -3.9445866153699276  4.3012509348355863
  1.7172042058659163 -0.9914257648650501  4.3012509348355863
  3.4222100000000024  3.9439461165672678  1.4317809657814442
