Tm Ag Te 
 1.0000000000000000
     0.0000000000000000    0.0000000000000000    4.6358514282060446
     7.0467619905332084    0.0000000000000000   -0.0000000000000000
     0.0000000000000000    7.0467619905332084    0.0000000000000000
 Tm  Ag  Te 
   2   2   4
Cartesian
  0.0000000000000000  3.5233800000000000  3.7531245469236154
  3.5233800000000000  0.0000000000000000  0.8827254530763843
  3.5233800000000000  3.5233800000000000  0.0000000000000000
  0.0000000000000000  0.0000000000000000  0.0000000000000000
  1.4241150108137264  4.9474950108137259  1.3657974535017763
  2.0992649891862727  1.4241150108137264  3.2700525464982215
  5.6226449891862744  2.0992649891862727  1.3657974535017763
  4.9474950108137259  5.6226449891862744  3.2700525464982215
