Ni  O 
 1.0000000000000000
     4.5395022907385574   -0.0000000000000000   -0.0000000000000000
     0.0000000000000000    4.5395022907385574    0.0000000000000000
    -0.0000000000000000   -0.0000000000000000    4.5395022907385574
 Ni  O  
   5   4
Cartesian
  4.3415770403470066  4.3415770403470066  4.3415770403470066
  2.4676729596529943  2.4676729596529943  4.3415770403470066
  2.4676729596529943  4.3415770403470066  2.4676729596529943
  4.3415770403470066  2.4676729596529943  2.4676729596529943
  1.1348750000000001  1.1348750000000001  1.1348750000000001
  2.3243278770621862  2.3243233375621974  2.3243278770621862
  4.4849221229378147  4.4849221229378147  2.3243278770621862
  4.4849221229378147  2.3243278770621862  4.4849221229378147
  2.3243324165622070  4.4849221229378147  4.4849221229378147
