Ca Te  O 
 1.0000000000000000
     5.0646678757125869   -0.0000000000000000    0.0000000000000000
     0.0000000000000000    5.2347698932254714    0.0000000000000000
     0.0000000000000000    0.0000000000000000   12.7857388494286397
 Ca  Te  O  
   4   4  16
Cartesian
  3.7985024999999997  0.0000000000000000  8.5546618217021848
  1.2661674999999999  2.6173850000000001 10.6239481782978160
  1.2661674999999999  0.0000000000000000  4.2310781782978193
  3.7985024999999997  2.6173850000000001  2.1617918217021823
  3.7985024999999997  2.6173850000000001  5.4578009281528503
  1.2661674999999999  0.0000000000000000  0.9350690718471494
  1.2661674999999999  2.6173850000000001  7.3279390718471529
  3.7985024999999997  0.0000000000000000 11.8506709281528479
  4.7015991259172720  4.1572065267945453  0.5633996688276551
  2.1692641259172718  3.6949484732054549  5.8294703311723453
  4.7015991259172720  3.6949484732054549  6.9562696688276553
  2.1692641259172718  4.1572065267945453 12.2223403311723455
  0.3630708740827283  1.0775634732054546 12.2223403311723455
  2.8954058740827269  1.5398215267945461  6.9562696688276553
  3.1141878215436032  1.4561734470417507  4.1598596170260000
  1.9504821784563959  3.7785965529582470  8.6258803829740014
  1.9504821784563959  4.0735584470417532  2.2330103829739989
  4.4828171784563962  3.7785965529582470  4.1598596170260000
  2.8954058740827269  1.0775634732054546  0.5633996688276551
  4.4828171784563962  4.0735584470417532 10.5527296170259994
  3.1141878215436032  1.1612115529582479 10.5527296170259994
  0.5818528215436034  1.4561734470417507  8.6258803829740014
  0.5818528215436034  1.1612115529582479  2.2330103829739989
  0.3630708740827283  1.5398215267945461  5.8294703311723453
