Cu  H  O  F 
 1.0000000000000000
     3.1518332133472833   -0.6217931057648584   -0.8833084098922463
    -1.4762471776745403    5.1209815338721185   -0.3025507875260728
    -0.8620037972751672    0.3363255838875402    5.2572935888725851
 Cu  H   O   F  
   1   4   2   2
Cartesian
  0.0000000000000000  0.0000000000000000  0.0000000000000000
  2.3104989505403939  0.7462347190335109  1.9679668667171297
  2.1111903085403556  2.2987330402806667  0.1639389299484579
 -1.4969189505403908  4.0892852809664859  2.1034631332828675
 -1.2976103085403541  2.5367869597193300  3.9074910700515431
 -1.3161915150267891  3.8742175595118522  1.1462079419676749
 -1.0220584849732113  1.5830924404881472  3.8085320580323296
 -1.6186582829313432  4.1296630002664729  3.7327031691233374
  2.4322382829313436  0.7058569997335296  0.3387268308766626
