Sm Mg Se 
 1.0000000000000000
     6.9118055661716546   -0.0000000000000000    0.0000000000000004
     0.0000000000000014    8.3883423783206208    0.0000000000000005
    -0.0000000000000000   -0.0000000000000000   14.3112262888563730
 Sm  Mg  Se 
   8   4  16
Cartesian
  3.4559050000000000  0.0000000000000000  0.0000000000000000
  0.0000000000000000  0.0000000000000000  7.1556150000000001
  0.0000000000000000  4.1941699999999997  7.1556150000000001
  3.4559050000000000  4.1941699999999997  0.0000000000000000
 -0.0677844252952348  6.2912549999999996  3.3266264604035567
  0.0677844252952341  2.0970849999999999 10.9846035395964439
  3.3881205747047676  2.0970849999999999  3.8289885395964456
  3.5236894252952360  6.2912549999999996 10.4822414604035572
  4.0618486561932956  2.0970849999999999  8.5134836963300735
  2.8499613438067048  6.2912549999999996  5.7977463036699302
  0.6059436561932960  6.2912549999999996 12.9533613036699276
  6.3058663438067040  2.0970849999999999  1.3578686963300703
  4.9934784587294789  6.2912549999999996 13.0294729607006499
  1.9183315412705184  2.0970849999999999  1.2817570392993476
  1.7645825377704554  6.2912549999999996  8.1723188277392946
  5.1472274622295426  2.0970849999999999  6.1389111722607037
  5.2204875377704569  2.0970849999999999 13.2945261722607047
  1.6913224622295431  6.2912549999999996  1.0167038277392955
  5.0857880278699250  4.1104350008782760  2.4512410487109269
  1.8260219721300741  8.3046050008782721 11.8599889512890737
  1.6298830278699246  4.2779049991217262  4.7043739512890719
  5.2819269721300746  4.1104350008782760  9.6068560487109256
  5.2819269721300746  0.0837349991217252  9.6068560487109256
  1.6298830278699246  8.3046050008782721  4.7043739512890719
  5.3742365412705215  6.2912549999999996  5.8738579607006525
  5.0857880278699250  0.0837349991217252  2.4512410487109269
  1.8260219721300741  4.2779049991217262 11.8599889512890737
  1.5375734587294814  2.0970849999999999  8.4373720392993494
