Ca Ag Pb 
 1.0000000000000000
     0.0000000000000000    3.7758380651939158    3.7758380651939158
     3.7758380651939158   -0.0000000000000000    3.7758380651939158
     3.7758380651939158    3.7758380651939158   -0.0000000000000000
 Ca  Ag  Pb 
   2   1   1
Cartesian
  3.7758400000000001  3.7758400000000001  3.7758400000000001
  0.0000000000000000  0.0000000000000000  0.0000000000000000
  1.8879200000000000  1.8879200000000000  1.8879200000000000
  5.6637599999999999  5.6637599999999999  5.6637599999999999
