Sn  H  C Cl 
 1.0000000000000000
     4.3825109153465842   -0.0034978334346850   -0.3657841420063996
    -2.1754071873206668    5.6127995814003517   -1.4951187483914463
    -0.0041592658499614    0.0441474605174519   10.2041960990128384
 Sn  H   C   Cl 
   2   8   4   4
Cartesian
 -0.1747894621946203  0.4840008518629508  2.6924445220535684
 -1.8855828959826775  5.3894422273848264  6.3110899153251347
  3.2022252723784899  0.8391891502512344  5.4894776104495469
 -1.4390749379469632  4.3699548810363407  8.7260349626358735
  3.7615035143507978  1.5000485994314312 -0.0883593948220849
 -0.8798337659125790  5.0309085496466883  3.1481759852132405
  1.1307348628415184  1.1983165929018076  4.8980510662220977
  1.1891725176239789  4.6702645826700522  8.1842185958544604
  1.1332250569821360  1.1996382364954252  0.4535819668626890
  1.1915459211065713  4.6717758075102269  3.7395555715502495
  1.7234985097354176  5.6174872678715255  3.8850757282967057
  0.5988472582757632  0.2525685132930577  4.7525717158220688
  2.1838796352287160  5.1190970264574300  8.1164109099974073
  0.1384782447921908  0.7508280646229056  0.5213237409270135
  2.0008908580873568  1.5675450492563163  7.9113445424154998
 -0.2139903713965549  3.6016375650410599  5.9521205999744771
  2.5363152842676802  2.2684351657047181  2.6854675633563638
  0.3213930544027576  4.3023866264120407  0.7263235526256849
