Tl  O 
 1.0000000000000000
     3.5421353108491163   -0.0062512055552857   12.4629022775614668
     1.7314365005435162    3.0901270902081226   12.4629022801444300
    -0.0106895365524249   -0.0062512082446116   12.9564859640659567
 Tl  O  
   4   2
Cartesian
  1.5239204193823324  0.8911573679608513 10.9691814313053460
  3.7389695806176668  2.1864726320391488 26.9131085686946463
  4.6173582213954667  2.7001362716970156 33.2357513035236138
  0.6455317786045336  0.3774937283029837  4.6465386964763855
  3.0701133188263250  1.7953392249155034 22.0986802073646658
  2.1927766811736751  1.2822907750844970 15.7836097926353354
