 W  O 
 1.0000000000000000
     0.0000000000000000    0.0000000000000000    3.0213823452049815
     4.3946133081486076    0.0000000000000000    0.0000000000000000
     0.0000000000000000    4.3944498337860294    0.0000000000000000
 W   O  
   3   1
Cartesian
  3.2959575000000001  0.0000000000000000  2.2660498127988622
  1.0986525000000000  2.1972250000000000  2.2660498082678346
  1.0986525000000000  0.0000000000000000  0.7553620668091936
  3.2959575000000001  2.1972250000000000  0.7552983121241106
