Ba Zr Ti 
 1.0000000000000000
     0.0000000000000000    4.9321475962950760    4.9321475962950760
     4.9321475962950760   -0.0000000000000000    4.9321475962950760
     4.9321475962950760    4.9321475962950760    0.0000000000000000
 Ba  Zr  Ti 
   4   1   1
Cartesian
  6.1640757768866532  3.7002192909633251  3.7002192909633251
  6.1640757768866532  6.1640757768866532  6.1640757768866532
  3.7002192909633251  6.1640757768866532  3.7002192909633251
  3.7002192909633251  3.7002192909633251  6.1640757768866532
  0.0000000000000000  0.0000000000000000  0.0000000000000000
  2.4660750000000000  2.4660750000000000  2.4660750000000000
