Sr Ho Re  O 
 1.0000000000000000
     5.0821936191753023   -0.0000000012782463    2.9342061287540488
     1.6940648706479273    4.7915384664901284    2.9342061287540488
    -0.0000000000000000    0.0000000000000000    5.8684122575080977
 Sr  Ho  Re  O  
   2   1   1   6
Cartesian
  1.6940624999999998  1.1978850000000001  2.9342075000000003
  5.0821874999999999  3.5936550000000000  8.8026225000000000
  3.3881249999999996  2.3957700000000002  5.8684150000000006
  0.0000000000000000  0.0000000000000000  0.0000000000000000
  2.4961955250806374  3.6571489188297255  7.4132812979019604
  2.4961955250806374  3.6571489188297255  4.3235487020980390
  4.2800544749193632  1.1343910811702742  7.4132812979019613
  1.6042686826739945  1.1343910811703937  5.8684123674874487
  4.2800544749193632  1.1343910811702742  4.3235487020980390
  5.1719813173260061  3.6571489188296069  5.8684176325125517
