Ba Te Cl 
 1.0000000000000000
    -0.0000000000000000    5.0035364435842444    5.0035364435842444
     5.0035364435842444    0.0000000000000000    5.0035364435842444
     5.0035364435842444    5.0035364435842444    0.0000000000000000
 Ba  Te  Cl 
   4   1   1
Cartesian
  6.2627607962520973  3.7443192037479394  3.7443192037479394
  6.2627607962520973  6.2627607962520973  6.2627607962520973
  3.7443192037479394  6.2627607962520973  3.7443192037479394
  3.7443192037479394  3.7443192037479394  6.2627607962520973
  0.0000000000000000  0.0000000000000000  0.0000000000000000
  2.5017700000000000  2.5017700000000000  2.5017700000000000
