Mn Au  O 
 1.0000000000000000
     1.2501775055510724    2.2915322787027765    1.3730637056973034
    -0.0013638133476132   -0.0023067375590017   -3.1627750004218633
    -5.7391082860219242    2.3464003696984341    1.3095177373480738
 Mn  Au  O  
   1   1   2
Cartesian
 -2.2444649999999999  2.3189649999999999  1.3412899999999999
  0.0000000000000000  0.0000000000000000  0.0000000000000000
 -1.8022146712329037  1.0154277055250682 -0.0537513146691191
 -2.6880753287670971  3.6201922944749323 -0.4264486853308815
