Li  V  W  O 
 1.0000000000000000
     5.8457301463634295   -0.0000022228479034   -0.0000271060393970
    -2.9228680952500539    5.0625563344020570    0.0000552219713212
     0.0003325123528817   -0.0005762036802292    9.7103242430548420
 Li  V   W   O  
   4   6   2  16
Cartesian
  0.0002672346376844  3.3746779718642559  8.7351966503721368
 -2.9222084163935733  5.0618156624805231  9.6231338497172239
  2.9230045172574610  5.0618956463061693  4.7679438496570770
  2.9228758585617265  1.6873807533149567  3.8800066502521591
  2.9230529684563198  3.3029109506183674  6.9321496494555186
  1.5238847308583772  0.8794201337091063  6.9319807516383039
  4.3223203743916292  0.8793705456117461  6.9319921089650629
 -0.0000263194898905  1.7592904406694576  2.0768621090257340
 -1.3992340567639749  4.1828517952925672  2.0770196493966231
  1.3991461641968017  4.1828360526655466  2.0768507516970036
  0.0001359336904202  3.3747378003295001  4.7486691882246772
  2.9232109993152866  1.6869663569550009  9.6037991883429523
  1.4867475062088646  0.8583157333103953  0.9284248161951861
  2.9228593857036977  3.3458675001795770  0.9284927156401394
  2.9230976894034169  1.6873312836723255  5.8060751558838888
  2.9230991293757111  0.1779387332093433  8.2288049871542039
  1.6161491511600117  2.4417494562798163  8.2289943558183722
  1.4363291117488197  4.2038632510190252  5.7836148161986474
  1.3070453212113671  2.6203278204748313  3.3736749871000700
 -1.3070073011306866  2.6203493942483234  3.3738014802667942
  0.0002185646300842  1.7162985423126569  5.7834208907455009
  0.0002623598638894 -0.0002650145358674  7.8223787323221874
  5.8456545301872422 -0.0000680479564192  2.9671887323816590
 -0.0001264398445809  3.3750301650848034  0.9509451558839059
  4.2301074440532895  2.4417846013030378  8.2289314802765645
 -1.4360071154040688  4.2039253477119356  5.7836827156377915
  0.0000000459404698  4.8840902736968612  3.3738643558222039
  4.3590913523942350  0.8582510744521107  0.9282308908084292
