Ba Zn Te  O 
 1.0000000000000000
     8.5393562408221548    0.0537448724723637    0.0000000000000005
    -5.3861932797768404    6.6266443598455052    0.0000000000000005
    -0.0000000000000000   -0.0000000000000000    5.6269601172036090
 Ba  Zn  Te  O  
   2   2   4  14
Cartesian
  6.0280970226973523  2.2838695652960044  4.2202200000000003
 -2.0683219777683650  6.1054028223782097  1.4067400000000001
  0.4010465148438600  5.0725799087457020  4.2202200000000003
  3.6611950067721031  3.5337803624013815  1.4067400000000001
  3.9018769806345617  5.4298533258388373  4.2202200000000003
  1.7118623313198720  6.4635465938591681  1.4067400000000001
  2.1976955115957222  2.0151513504781691  4.2202200000000003
  0.1588542629391773  2.9774903348123321  1.4067400000000001
  0.3849901967293103  6.5063704010445251  0.0310041429684536
  4.7783069411461288  4.4327121520434227  5.5959558570315471
  0.3849901967293103  6.5063704010445251  2.7824758570315464
  4.7783069411461288  4.4327121520434227  2.8444841429684540
  1.8711253671932191  4.5135210141427731  1.4067400000000001
  2.2952010889151957  4.3133560431860509  4.2202200000000003
  3.4046110669115595  1.9722111774516951  2.7748669313355854
  3.4046110669115595  1.9722111774516951  0.0386130686644151
 -0.6414202774860215  3.8819497101194069  2.8520930686644133
  0.0188635603476275  0.0399647818782635  2.8134800000000002
  7.0346300367269992  1.8299452463946730  1.4067400000000001
 -3.0585174882768627  6.5939401598521581  4.2202200000000003
 -0.6414202774860215  3.8819497101194069  5.5883469313355869
  0.0188635603476275  0.0399647818782635  0.0000000000000000
