Zr Be Sn 
 1.0000000000000000
     3.2814230166935685   -0.0000000000000000    0.0000000000000000
    -0.0000000000000000    3.2814230166935685    0.0000000000000000
    -0.0000000000000000   -0.0000000000000000    6.0710042699537645
 Zr  Be  Sn 
   1   2   1
Cartesian
  1.6407099999999999  1.6407099999999999  3.0354999999999999
  0.0000000000000000  0.0000000000000000  4.7039028641724094
  0.0000000000000000  0.0000000000000000  1.3670971358275907
  1.6407099999999999  1.6407099999999999  0.0000000000000000
