Na Nb  S 
 1.0000000000000000
     7.3392389200227210    0.0162071844043318    0.4629926652637159
    -3.6453842845004902    6.3699186820805966    0.4629926652637160
     0.0059466635463171    0.0102808977719963    7.2617581706792462
 Na  Nb  S  
   2   2  12
Cartesian
  3.7072405182490620  2.1179307023151774  7.7167855645526915
 -0.0155660048000011  4.2644109446460057  4.0859055645526929
  7.2116927566005966  0.1418629831155307  5.8480412419828873
 -3.4758349284817407  6.3168684265386528  2.2171612419828848
  6.1652379139966325  1.5644286817413084  4.0102970635704400
 -1.7149951987124652  6.1293639425515059  7.6411770635704377
  0.9398034853145520  2.3604926261940919  6.0801122083148496
  1.5745683362444785  1.9864719486420253  2.4492322083148501
 -0.6248134480596730  1.7373371723744158  7.2938571972042858
  1.8145386106388475  0.3195094457053663  3.6629771972042811
  4.7810608083501007  0.5896338777454166  5.2222207539562726
 -1.8757543672419561  4.4331996920622530  1.5913407539562752
  4.5511154379191616  4.2325196630479862  5.9087550863159333
  1.3966465656202409  6.0502627606302761  2.2778750863159338
  3.0698051881796440  4.6054855680935285  4.4943413381026840
  2.4585406209825376  4.9521916497964851  0.8634613381026844
