Sc Be Bi 
 1.0000000000000000
     3.5812623909608376    0.0000000000000000   -0.0000000000000000
     0.0000000000000000    3.5812623909608376    0.0000000000000000
     0.0000000000000000   -0.0000000000000000    5.7404744358889515
 Sc  Be  Bi 
   1   2   1
Cartesian
  1.7906299999999999  1.7906299999999999  2.8702350000000001
  0.0000000000000000  0.0000000000000000  3.9770081624282607
  0.0000000000000000  0.0000000000000000  1.7634618375717392
  1.7906299999999999  1.7906299999999999  0.0000000000000000
