Mg  H 
 1.0000000000000000
     4.8108387776941024    0.0000000000000000    0.0000000000000000
     0.0000000000000000    4.8103332542795441    0.0000000000000000
     0.0000000000000000    0.0000000000000000    4.8101484708506801
 Mg  H  
   4   8
Cartesian
  3.6082888965016617  3.4285253327783036  0.0002533233225304
  1.2025511034983392  3.4285253327783036  2.4053283233225309
  3.6082888965016617  1.0233603327783034  2.4048216766774697
  1.2025511034983392  1.0233603327783034  4.8098966766774698
  2.8653934271872501  0.2808507004354102  0.7422733846759045
  0.4596622743369110  1.7667036387863078  1.6619462315832516
  2.8653934271872501  2.6860157004354108  1.6628016153240961
  4.3511777256630886  4.1718686387863073  3.1482037684167481
  0.4596622743369110  4.1718686387863073  0.7431287684167482
  1.9454465728127497  2.6860157004354108  4.0678766153240966
  1.9454465728127497  0.2808507004354102  3.1473483846759036
  4.3511777256630886  1.7667036387863078  4.0670212315832526
