Li Cr Fe  O 
 1.0000000000000000
     4.9637982159733598    0.0344088226819583    0.0000000000000000
    -2.4647390107049381    4.3087739996270518   -0.0000000000000000
    -0.0000000000000000    0.0000000000000000    9.9542255903041781
 Li  Cr  Fe  O  
   4   4   2  12
Cartesian
 -0.8612943940992085  2.7992867430654402  7.4656725000000002
 -0.3539156059007902  3.6810732569345599  2.4885575000000002
  2.8529756059007916  0.6621067430654403  7.4656725000000002
  3.3603543940992089  1.5438932569345594  2.4885575000000002
 -1.2660269534553377  3.6190340495205007  4.9771150000000004
  0.0508169534553382  2.8613259504794994  0.0000000000000000
  2.4482430465446630  1.4818540495205019  0.0000000000000000
  3.7650869534553371  0.7241459504794980  4.9771150000000004
  0.0000000000000000  0.0000000000000000  0.0000000000000000
  1.2495300000000000  2.1715900000000001  4.9771150000000004
  2.0978549083541989  0.7434087459601757  3.9234217520851584
  2.0572650910553913  3.5753733797061655  3.9606682792706320
 -0.8036813715974942  4.2930593702449258  8.9005367520851575
  1.6913249089446083  2.9393966202938344  8.9377832792706329
  0.8077350910553885  1.4037833797061667  1.0164467207293693
 -1.6164150916458002  2.8805887459601753  1.0536932479148420
  0.4012050916458011  3.5997712540398248  6.0308082479148437
 -0.4115286284025058  2.1873006297550743  3.9234217520851584
  4.1154750916458003  1.4625912540398249  8.9005367520851575
  2.9105886284025075  2.1558793702449237  6.0308082479148437
  0.4417949089446107  0.7678066202938337  5.9935617207293674
  3.3027413715974934  0.0501206297550745  1.0536932479148420
