La Ge Rh 
 1.0000000000000000
     4.1290058534361194   -0.0000000000040790   -0.6736356886777582
    -0.1141053051363116    4.2162641346226053   -0.6994009773162431
     0.0142797624238451    0.0021983184538423   13.0785801338650032
 La  Ge  Rh 
   3   4   4
Cartesian
  3.5020111985105866  1.5005032601582431  8.4742788112512368
  0.5271688014894128  2.7179567398417572  3.2312611887487637
  0.0000000000000000  0.0000000000000000  0.0000000000000000
  1.8222177793068923  1.9020743847832478 11.1691632002698196
  2.2069622206931077  2.3163856152167526  0.5363767997301775
  1.1627156336115239  3.3813556834357357  7.1268033612775987
  2.8664643663884761  0.8371043165642649  4.5787366387224013
  1.5592813524671345  3.7953004405147901  9.5575265139034382
  1.0112136136137693  1.0555288912058212  6.1981668040335789
  3.0179663863862309  3.1629311087941789  5.5073731959664265
  2.4698986475328661  0.4231595594852094  2.1480134860965654
