Rb Zn  O 
 1.0000000000000000
     4.1259359101988107   -0.0000000000000000   -0.0000000000000000
     0.0000000000000000    4.1259359101988107    0.0000000000000000
     0.0000000000000000    0.0000000000000000    4.1259359101988107
 Rb  Zn  O  
   1   1   3
Cartesian
  0.0000000000000000  0.0000000000000000  0.0000000000000000
  2.0629700000000000  2.0629700000000000  2.0629700000000000
  0.0000000000000000  2.0629700000000000  2.0629700000000000
  2.0629700000000000  0.0000000000000000  2.0629700000000000
  2.0629700000000000  2.0629700000000000  0.0000000000000000
