 W Se 
 1.0000000000000000
     3.3266714070092873    0.0000000002327769    0.0000000000000000
    -1.6633362031014898    2.8809811472422724   -0.0000000000000000
    -0.0000000000000000    0.0000000000000001   20.7934320048001773
 W   Se 
   2   4
Cartesian
  1.6633349966699842  0.9603257063400092  9.5541096782486239
 -0.0000049966699839  1.9206542936599909  2.9448210947512625
 -0.0000049966699839  1.9206542936599909 11.2349384059031703
  1.6633349966699842  0.9603257063400092  4.6277278885328332
 -0.0000049966699839  1.9206542936599909  7.8712028844670616
  1.6633349966699842  0.9603257063400092  1.2639923670968440
