Ce Cu Ge 
 1.0000000000000000
     3.8913944767437463    0.0000000004088727   -1.4717061378413665
    -0.5565917073448070    3.8513834531831788   -1.4717061376818541
     0.0065731822661947    0.0075911451307502    5.8979253386663615
 Ce  Cu  Ge 
   1   2   2
Cartesian
  0.0000000000000000  0.0000000000000000  0.0000000000000000
  2.7826800000000000  0.9666399999999999  1.4772549999999998
  0.5586899999999999  2.8923300000000003  1.4772549999999998
  2.0764899776941319  2.3981509593221895 -0.3900166356807279
  1.2648800223058683  1.4608190406778110  3.3445266356807282
