Rb  B Se 
 1.0000000000000000
     6.8940246743597458    0.0000000053035362    2.3593649430062174
     3.0986200086371833    7.8075981391369425    2.1976798129428925
    -0.0465247528674892    0.0343486780198737   11.3877416784776955
 Rb  B   Se 
   4   4  14
Cartesian
  5.1636055894385979  1.4971981194114226  2.2135965533140309
  4.7825144105614052  6.3447518805885785 13.7311834466859679
  2.9829224775736054  5.4181731194018052  7.7377407767739035
  6.9631975224263911  2.4237768805981901  8.2070392232261025
  6.9493169839165594  6.9118119149108956  7.3587032162633133
  7.7314746130225735  4.8167630850932630  5.0732217736241010
  2.9968030160834389  0.9301380850891059  8.5860767837366865
  2.2146453869774221  3.0251869149067372 10.8715582263758979
  3.7007731831468060  2.0729088594989227  7.0307716494985240
  6.0758783910431147  5.8642875000040258  5.7832031193351146
  3.8702416089568872  1.9776624999959780 10.1615768806648870
  9.0001409291306338  7.0204727672315608  7.1522354958854848
  2.3317504683605716  4.7081022327622701  4.1335858891029345
  0.9459790708693687  0.8214772327684394  8.7925445041145149
  7.6143695316394275  3.1338477672377238 11.8111941108970608
  3.0314048057188576  0.9723504200585086  4.9741075703560833
  6.9147151942811433  6.8695995799414939 10.9706724296439191
  2.9766674856876891  4.8933254200386820 11.2258202464524270
  6.2453468168531927  5.7690411405010780  8.9140083505014704
  8.0815460792337213  5.9938838594816488 14.8004615555290613
  1.8645670267462955  1.8480661405183496  1.1443160851109451
  6.9694525143123114  2.9486245799613138  4.7189597535475718
