Mn Nb Si 
 1.0000000000000000
    -0.0000000000000000    2.9463529558939734    2.9463529558939734
     2.9463529558939734    0.0000000000000000    2.9463529558939734
     2.9463529558939734    2.9463529558939734    0.0000000000000000
 Mn  Nb  Si 
   2   1   1
Cartesian
  0.0000000000000000  0.0000000000000000  0.0000000000000000
  2.9463499999999998  2.9463499999999998  2.9463499999999998
  1.4731749999999999  1.4731749999999999  1.4731749999999999
  4.4195250000000001  4.4195250000000001  4.4195250000000001
