Ce Al  O 
 1.0000000000000000
     4.6356660674802059   -0.0097609407742958    2.6580144600074229
     1.5353098112228869    4.3740509867199391    2.6580144581671332
    -0.0138023871438239   -0.0097609408923965    5.3436181484962875
 Ce  Al  O  
   2   2   6
Cartesian
  4.6178850000000002  3.2658975000000003  7.9947299999999997
  1.5392950000000001  1.0886325000000001  2.6649099999999999
  3.0785900000000002  2.1772650000000002  5.3298199999999998
  0.0000000000000000  0.0000000000000000  0.0000000000000000
  2.5023275016383768  3.2756575000001735  3.8810617560440854
  3.7920341414260035  0.8995384185118166  4.1067682439558197
  1.4021133569356190  1.2679665814880112  5.3367200000000938
  3.6548524983616244  1.0788724999998278  6.7785782439559146
  4.7550666430643806  3.0865634185119895  5.3229199999999057
  2.3651458585739951  3.4549915814881844  6.5528717560441772
