 Y Mn Cr  O 
 1.0000000000000000
     5.2575171119113220   -0.0001654742988399   -0.0000155270816179
     0.0001774121389334    5.6315070445303013   -0.0316790986892367
     0.0000166867244650    0.0152383703188684    7.5442792900487810
 Y   Mn  Cr  O  
   4   2   2  12
Cartesian
  2.7295693079969272  0.4181202125568820  1.8849001410811312
  2.5281506340203261  5.2284608156105978  5.6276783117811968
  0.1008862475816019  2.4127799388360613  5.6435293948007743
  5.1568345236943225  3.2337998238161454  1.8690505429066679
  2.6288600443731642  2.8232893426305066  3.7562884357692039
  0.0000106755212517  0.0076205220239802  3.7721392880036189
  0.0000010670490051  0.0000001471248256  0.0000008469126054
  2.6288505467848404  2.8156696121661127 -0.0158491741316440
  3.2119487101912827  3.0362115547029407  5.6477795835925599
  2.0457720095847312  2.6103686309055649  1.8647989094218742
  1.5814883523254433  1.0603833928484689  4.1737914733466486
  3.6762308093425760  4.5861965297472658  3.3387885848950423
  4.2102742778386517  1.7704179982661203  3.3546307129371202
  1.0046079886522299  3.9387911692112203  7.0941490643396872
  3.6333701230464475  4.5235649391535997  0.4025926378995856
  1.6243516643833025  1.1230143857315842  7.1099865238657349
  4.6744651067959344  0.2204085494467834  5.6636141724745714
  4.2531134555267025  1.7077889592469990  0.4184292192031944
  1.0474447213312665  3.8761621014147476  4.1579486378308141
  0.5832549914600985  5.4261713591495484  1.8489651487696221
