Eu Sn Rh 
 1.0000000000000000
     4.1050132454204533    0.0000000000000000    2.3700304550192808
     1.3683377484734844    3.8702434868313729    2.3700304550192808
     0.0000000000000000   -0.0000000000000000    4.7400609100385616
 Eu  Sn  Rh 
   1   1   2
Cartesian
  2.7366750000000000  1.9351200000000000  4.7400599999999997
  0.0000000000000000  0.0000000000000000  0.0000000000000000
  1.3683375000000000  0.9675600000000000  2.3700299999999999
  4.1050125000000000  2.9026800000000001  7.1100899999999996
