Dy Mg Ti  O 
 1.0000000000000000
     5.6135697654025156    0.0000000000000000    0.0000000000000003
    -0.0000000000000003    4.3738655440078125    2.9972375069224788
    -0.0000000000000000    0.0167253566777409    9.2832629765022521
 Dy  Mg  Ti  O  
   4   2   2  12
Cartesian
  0.3792065616107611  3.2072373814941297  9.1668771089613568
  5.2343634383892397  1.1833626185058717  3.1136228910386468
  3.1859915616107610  1.1917276185058716  7.7552528910386451
  2.4275784383892391  3.1988723814941298  4.5252471089613548
  2.8067850000000001  2.1869350000000001  1.4986200000000001
  0.0000000000000000  2.1953000000000000  6.1402500000000000
  2.8067850000000001  0.0083650000000000  4.6416300000000001
  0.0000000000000000  0.0000000000000000  0.0000000000000000
  3.8667042967276783  1.5642785036643085  5.1951990909602381
  1.7468657032723209  2.8263214963356917  7.0853009090397610
  3.9483886789504123  3.2985199805463372  2.8242661582379478
  1.6651813210495878  1.0920800194536633  9.4562338417620548
  1.1416036789504136  1.0837150194536633  4.8146038417620538
  3.0379022674722718  0.5778883922587292  2.7690188917023728
  0.2311172674722710  3.8043466077412700  4.8698511082976275
  5.3824527325277289  0.5862533922587292  7.4106488917023716
  4.5536507032723224  1.5726435036643085  9.8368290909602401
  2.5756677325277288  3.8127116077412704  9.5114811082976285
  4.4719663210495879  3.3068849805463372  7.4658961582379462
  1.0599192967276791  2.8179564963356918  2.4436709090397630
