 W  F 
 1.0000000000000000
     4.5452332266608817    0.5833609377969045   -1.2038684247533409
    -1.3419455753747822    5.5247567056789428   -2.3787617231676133
     1.4938497004231797   -0.8064141455276583    5.4248573405698020
 W   F  
   2   8
Cartesian
 -0.6788330184636132  2.7582959398047353 -1.1925601415032547
  2.2648085221951746  0.2876047387725317 -0.6051699288688205
  3.1812507429531784  2.0725181353541551 -0.9569038697667664
  4.1151966152881068  1.7262714119414557  1.8674918631604165
  1.5001407961134794  3.2212139303028131  2.7928631547245688
  2.1862490062940361  0.4666357861330326  3.9779912485044897
  0.5658500046083198  3.5677799861588180 -0.0315986484082984
  1.5702512160085305  0.8403321156721986  1.0584413408205946
  2.4952024583144894  4.8270180599137920 -2.1421403767046336
  3.1114235778482695  4.4536990792864390  0.7772146882317009
