Zn Co  O 
 1.0000000000000000
     2.7855313544602809   -0.0000111010158881    0.5714134665890039
     1.3207800075362013    6.7390124767957476    0.6373377308354135
     0.0004434012363931    0.2793720862818680    7.0734567941900384
 Zn  Co  O  
   2   4   8
Cartesian
  1.1694592384976088  0.7484327883510620  1.3758761189783137
  2.8943929865641929  6.1242077405473125  7.1170698240110486
  2.0098374739689762  1.3472545162162795  4.3539159750816570
  1.0735830978158094  3.4148009390641225  1.8426827629107356
  2.9902320007167957  3.4578931807675457  6.6503008455381369
  2.0539865657240712  5.5254830500037029  4.1390665035859255
  3.2605192643911312  4.7573858943975589  5.3325181360256932
  1.7115989231212365  2.4165443567815226  5.8079229443376921
  2.3522224285261304  4.4561744742200595  2.6850446431714685
  0.8033021496262356  2.1153439855819864  3.1604733503100095
  0.4594831055315506  0.2181571486230708  4.8360447039448662
  2.6472046062896122  2.3038644874785721  1.2468169328886709
  3.6043475455369753  6.6545723569991413  3.6569359408706430
  1.4166125750896508  4.5688031948781029  7.2461704132451379
