Na  V  O 
 1.0000000000000000
     1.7192898583697123    0.9926322217959529    4.7649740281525093
     4.4964010314356289   -2.1394598694033538    0.0499946146577913
     4.8917754885018399    2.8242682875788012    0.0999892312889108
 Na  V   O  
   1   3   6
Cartesian
  2.9552698520463792  0.5298613531406910  0.0499937579197201
  4.9489436008013277  2.7252595300629880  0.0999898606077979
  4.6028633542965069 -0.3385877194586469  2.4324768865738746
  6.5594489824521229  1.9210491023612934  2.4824730796994094
  1.2586980137938408  0.7179314795354591  1.2511258699253625
  3.0654181505018636  0.1306106428689402  3.4911154054350626
  5.3599734390847065  3.0858023900045080  3.6138341115406920
  4.9652497322146747  1.2274798036140067  1.3738412329990530
  6.1287746122110907  0.3792450104739366  3.5133036383542851
  8.1100157536975388  1.5231159671267906  1.4516395902747450
