 K  Y  C  O 
 1.0000000000000000
     6.2018382624484776   -0.0514844761989155    1.4864098016545599
    -1.1467713763283764    6.0951098345553500    1.4864098016545622
    -0.0354039683359334   -0.0423274954895249    6.8685412706880076
 K   Y   C   O  
   2   2   4  12
Cartesian
  3.4105308110660202  2.2292970703758592  6.6378150000000016
  1.6091391889339839  3.7720029296241457  3.2035450000000014
 -0.4684846798068422  5.4738178472362735  6.6378150000000007
  5.4881546798068435  0.5274821527637287  3.2035450000000005
  2.9463108688853077  5.3581415756534527  7.4905595310412965
  2.0733591311146915  0.6431584243465458  2.3508004689587030
  0.2488944907679670  2.1332236394088193  5.7850704689587040
  4.7707755092320312  3.8680763605911803  4.0562895310412967
  0.1357667101599289  5.8721472305717155  4.4397771423290973
  4.8839032898400694  0.1291527694282819  5.4015828576709053
  3.8086777571415844  4.2880551904285085  4.8125828900183496
  1.2109922428584119  1.7132448095714912  5.0287771099816529
  1.4899514409752079  1.5158850580126635  1.5945071099816517
  3.3414358736602505  0.5757434267109077  2.4719706658107823
  5.0612467112614423  2.6318767684411255  3.9351193341892152
 -0.0415767112614423  3.3694232315588764  5.9062406658107802
  5.7380169705481610  1.1502932470769176  7.8740471423290943
  1.6782341263397509  5.4255565732890929  7.3693893341892203
  3.5297185590247921  4.4854149419873330  8.2468528900183458
 -0.7183469705481639  4.8510067529230794  1.9673128576709031
