Ba Mg Mn 
 1.0000000000000000
     3.4956053346284728    0.0000000000000000   -0.0000000000000000
    -0.0000000000000000    3.4956053346284728    0.0000000000000000
    -0.0000000000000000    0.0000000000000000    8.6117903579662070
 Ba  Mg  Mn 
   1   2   1
Cartesian
  1.7478050000000001  1.7478050000000001  0.0000000000000000
  0.0000000000000000  0.0000000000000000  2.7984752281159122
  0.0000000000000000  0.0000000000000000  5.8133147718840892
  1.7478050000000001  1.7478050000000001  4.3058949999999996
