Ba Ni Br 
 1.0000000000000000
    -0.0000000000000000    5.7325424867469792    5.7325424867469792
     5.7325424867469792   -0.0000000000000000    5.7325424867469792
     5.7325424867469792    5.7325424867469792   -0.0000000000000000
 Ba  Ni  Br 
   4   1   1
Cartesian
  7.1684876657892804  4.2965866016706515  4.2965866016706515
  7.1684876657892804  7.1684876657892804  7.1684876657892804
  4.2965866016706515  7.1684876657892804  4.2965866016706515
  4.2965866016706515  4.2965866016706515  7.1684876657892804
  0.0000000000000000  0.0000000000000000  0.0000000000000000
  2.8662700000000001  2.8662700000000001  2.8662700000000001
