Nd Ni Sb 
 1.0000000000000000
     4.4976346302660213   -0.0000000000000000    0.0000000000000000
    -0.0000000000000000    4.4976346302660213   -0.0000000000000000
     0.0000000000000000   -0.0000000000000000    9.9906899346804039
 Nd  Ni  Sb 
   2   4   4
Cartesian
  2.2488150000000000  0.0000000000000000  7.6138817318709124
  0.0000000000000000  2.2488150000000000  2.3768082681290874
  2.2488150000000000  0.0000000000000000  3.7599466473475931
  0.0000000000000000  2.2488150000000000  6.2307433526524072
  0.0000000000000000  0.0000000000000000  0.0000000000000000
  2.2488150000000000  2.2488150000000000  0.0000000000000000
  2.2488150000000000  0.0000000000000000  1.2557868023491503
  0.0000000000000000  2.2488150000000000  8.7349031976508495
  0.0000000000000000  0.0000000000000000  4.9953450000000004
  2.2488150000000000  2.2488150000000000  4.9953450000000004
