Li Co  O 
 1.0000000000000000
    -2.8400790227273665   -1.6397203112397356    4.6378295107677694
    -2.8105489957953504    1.6226721999484721   -4.6257739720727793
    -0.0000000102143927   -3.2794406233672753   -4.6378295173366704
 Li  Co  O  
   3   4   8
Cartesian
 -1.4200400000000000 -2.4595799999999999  0.0000000000000000
  0.0000000000000000 -1.6397200000000001 -2.3189150000000001
  0.0000000000000000  0.0000000000000000  0.0000000000000000
 -2.8253149999999998 -1.6482450000000002 -2.3128850000000001
 -2.8253149999999998 -0.0085250000000000  0.0060300000000000
 -1.4052750000000001  0.8113350000000000 -2.3128850000000001
 -1.4200400000000000 -0.8198600000000000  2.3189150000000001
 -4.1277125244121180 -2.5360260644555064 -3.4243107169566209
 -4.1142142491357472 -0.7424950869146708 -1.2141599338815616
 -2.8341276938584672 -1.8047614229606130 -5.8519899339023906
 -2.8165023061736485 -3.2930528010711115 -1.3212380241735215
 -2.8341276938263515 -0.0034371989288884 -3.3045319758264782
 -2.8165023061415342 -1.4917285770393873  1.2262199339023943
 -1.5364157508642511 -2.5539949130853294 -3.4116100661184379
 -1.5229174755878816 -0.7604639355444944 -1.2014592830433777
