Li Ni  O  F 
 1.0000000000000000
    -0.0000000000000000   -2.0417248747541605   -2.0417248747541605
     0.0000000000000000    2.0417248747541605   -2.0417248747541605
    14.8753064693029255    0.0000000000000000    2.0417248747541605
 Li  Ni  O   F  
   3   4   4   3
Cartesian
 14.7702709248100756  0.0000000000000000  0.0000000000000000
 10.7302498785399809  0.0000000000000000 -0.0000020417199948
 12.7502678393300108  0.0000000000000000 -2.0417179582799907
  2.0853592322575367  0.0000000000000000 -0.0000020417199947
  4.2104150474934992 -0.0000000000000001 -2.0417200000000006
  6.4147957558565576  0.0000000000000000 -0.0000020417199952
  8.5398515710924183 -0.0000000000000000 -2.0417200000000144
  2.0584255769801851  0.0000000000000000 -2.0417179582800045
  4.2150758864013449  0.0000000000000000 -0.0000020417200094
  6.4101497922586752  0.0000000000000000 -2.0417179582799907
  8.5668001016798350 -0.0000000000000000 -0.0000020417199949
 14.7175040346138744 -0.0000000000000002 -2.0417179582800036
 10.7830316440461473  0.0000000000000001 -2.0417179582800076
 12.7502678393300108  0.0000000000000000  0.0000020417200096
