Er  W 
 1.0000000000000000
     0.0000000000000000    0.0000000000000000    3.1921836679107649
     4.7301499184067088    0.0000000000000000    0.0000000000000000
     0.0000000000000000    4.7306527335766138    0.0000000000000000
 Er  W  
   1   3
Cartesian
  3.5476125000000001  2.3653249999999999  0.7980578844865371
  3.5476125000000001  0.0000000000000000  2.3941289940622674
  1.1825375000000000  2.3653249999999999  2.3941290252489740
  1.1825375000000000  0.0000000000000000  0.7980440962022209
