Li Co  O  F 
 1.0000000000000000
     0.0000000000000000    5.3156233510514461    0.0400075413197437
     4.4611340980598246    0.0000000000000000    0.0000000000000000
     0.0000000000000000   -1.1189633047560337   -9.9363940929339289
 Li  Co  O   F  
   2   6   4  12
Cartesian
  0.0000000000000000  0.0000000000000000  0.0000000000000000
  2.2305649999999999 -0.5594800000000000 -4.9681949999999997
  2.2305649999999999  2.6578100000000000  0.0200050000000000
  4.3663355152744501  0.5988629793910393 -7.4948251439440794
  2.1357705152744497  3.0383170206089605 -7.3697498560559200
  0.0000000000000000  2.0983299999999998 -4.9481899999999994
  2.3253594847255497  1.1583429793910394 -2.5266301439440784
  0.0947944847255501  3.5977970206089607 -2.4015548560559203
  3.6613511758449668  2.1794123795163785 -3.2146143709341928
  1.4307861758449687  2.5767276204836227 -1.7135706290658068
  3.0303438241550329  1.6199323795163791 -8.1828093709341871
  0.7997788241550313  2.0172476204836221 -6.6817656290658114
  3.1286339342017508  1.1661629040898800 -0.6534338896156923
  0.9001656942323483  0.4440312802354681 -9.2158549776129384
  1.3324960657982481  3.0304970959101185 -9.2429461103843060
  3.5051321353548675  4.2639116438447049 -8.0970865361836601
  1.2745671353548662 -0.6267316438447049 -6.7674884638163393
  3.5630610657982489  0.6066829040898806 -5.6216288896156925
  3.1307306942323487  3.1931487197645323 -5.6487200223870602
  1.3303993057676520  1.0035112802354682 -4.2476599776129387
  0.8980689342017515  3.5899770959101183 -4.2747511103843063
  3.1865628646451323  4.8233916438447046 -3.1288915361836622
  0.9559978646451331 -0.0672516438447048 -1.7992934638163385
  3.5609643057676510  3.7526287197645321 -0.6805250223870624
