Ca Mn  O 
 1.0000000000000000
     5.3189336672811987    0.0000000043860165    0.0000000000000003
    -2.6594671120309403    4.6063315161810960    0.0000000000000003
    -0.0000000000000000   -0.0000000000000000    9.0741921052442880
 Ca  Mn  O  
   4   4  12
Cartesian
  0.0000000000000000  0.0000000000000000  4.5370949999999999
  0.0000000000000000  0.0000000000000000  0.0000000000000000
 -0.0000033333333143  3.0708866666666554  2.2685474999999999
  2.6594633333333144  1.5354433333333442  6.8056424999999994
 -0.0000033333333143  3.0708866666666554  8.0354767068536468
  2.6594633333333144  1.5354433333333442  1.0387132931463534
  2.6594633333333144  1.5354433333333442  3.4983817068536460
 -0.0000033333333143  3.0708866666666554  5.5758082931463528
 -1.2637879947051933  3.8005328612942915  6.8056424999999994
  1.3956855749069637  0.8057971387192508  2.2685474999999999
  2.6594644087878807  2.9947311162450196  2.2685474999999999
  3.9232479947051937  0.8057971387057088  2.2685474999999999
 -1.3297349999999999  2.3031649999999999  0.0000000000000000
  2.6594650000000000  0.0000000000000000  4.5370949999999999
  1.3297300000000001  2.3031649999999999  0.0000000000000000
 -1.3297349999999999  2.3031649999999999  4.5370949999999999
 -0.0000044087878797  1.6115988837549808  6.8056424999999994
  1.3297300000000001  2.3031649999999999  4.5370949999999999
  2.6594650000000000  0.0000000000000000  0.0000000000000000
  1.2637744250930363  3.8005328612807503  6.8056424999999994
