Ce Si Rh 
 1.0000000000000000
     3.8405108770827141   -0.0000000001135557   -1.4317651779742138
    -0.5337704171609594    3.8032371021395690   -1.4317651780262779
    -0.0163356891028764   -0.0187883371955090    5.8228820038128291
 Ce  Si  Rh 
   1   2   2
Cartesian
  0.0000000000000000  0.0000000000000000  0.0000000000000000
  2.0515155820770050  2.3595471279673577 -0.3638045730168600
  1.2388844179229952  1.4249028720326429  3.3231445730168603
  0.5516300000000001  2.8430350000000000  1.4796699999999998
  2.7387700000000001  0.9414150000000000  1.4796699999999998
