Hg Te Se 
 1.0000000000000000
     4.3713592418592988    0.0033229435106391    6.5782995778455140
     1.9888541497111356    3.8927177953865453    6.5782995778455131
     0.0054246447285090    0.0033229446176013    7.8982768806424088
 Hg  Te  Se 
   2   1   1
Cartesian
  0.0302706198033680  0.0185427120389437  0.1001227321546119
  3.1546123915759550  1.9324040786560976 10.4341573970125463
  3.9725249989670623  2.4334284399143846 13.1394751423271892
  0.7996231240235869  0.4898208700305570  2.6448236736255559
