Ba Be Hg 
 1.0000000000000000
     4.8076417792756754    0.0000000000000000    0.0000000000000000
     0.0000000000000000    4.8076417792756754   -0.0000000000000000
     0.0000000000000000    0.0000000000000000    4.4130412636436631
 Ba  Be  Hg 
   1   2   1
Cartesian
  0.0000000000000000  0.0000000000000000  2.2065199999999998
  2.4038200000000001  0.0000000000000000  0.0000000000000000
  0.0000000000000000  2.4038200000000001  0.0000000000000000
  2.4038200000000001  2.4038200000000001  2.2065199999999998
