Ni Te 
 1.0000000000000000
     2.6985967522440024   -4.6741072600057345    0.0000000000000000
     2.6985967522440024    4.6741072600057345   -0.0000000000000000
    -0.0000000000000000    0.0000000000000000    4.2692659026144089
 Ni  Te 
   6   2
Cartesian
  4.1085055036993321 -0.7440277467482140  3.2019525000000000
  4.1085055036993321  0.7440277467482141  1.0673174999999999
  2.6986000000000003  3.1860545065035031  1.0673174999999999
  1.2886944963006681  0.7440277467482149  1.0673174999999999
  1.2886944963006681 -0.7440277467482149  3.2019525000000000
  2.6986000000000003 -3.1860545065035031  3.2019525000000000
  2.6985999999999999  1.5580397827399701  3.2019525000000000
  2.6985999999999999 -1.5580397827399699  1.0673174999999999
