Sr La 
 1.0000000000000000
     1.9022837774758365   -3.2948510557653399    0.0000000000000000
     1.9022837774758370    3.2948510557653337   -0.0000000000000000
     0.0000000000000000   -0.0000000000000000   12.5653651365321029
 Sr  La 
   1   3
Cartesian
  0.0000000000000000  0.0000000000000000  0.0000000000000000
  0.0000000000000000  0.0000000000000000  6.2826849999999999
  1.9022800000000000 -1.0982855298999790  9.2174318987965176
  1.9022800000000000  1.0982855298999787  3.3479381012034799
