Na Al  O 
 1.0000000000000000
     5.8922528805960308   -0.0114328473308666    0.0397360838290972
     2.5892533876765453    7.0067752263357299    2.8178432205625872
     0.0191997206441610   -0.0092697796308598   11.3455916358798223
 Na  Al  O  
  14   6  16
Cartesian
  1.1560919534453984  0.7019639260022065  7.8711903497816129
  2.8807600490776579  3.3619344451813640  6.4716241635950631
  5.0398010905957804  4.8473741645798665  4.6849709617534732
  4.5765348773821959  6.3807523526968160  7.6183786004482927
  3.9241651226178051  0.6053276473031871  6.5847913995517109
  4.9412430090585131  4.9626083776991177 10.2863262325423452
  5.6199399509223413  3.6241455548186372  7.7315458364049370
  7.3446080465546038  6.2841160739977910  6.3319796502183960
  5.6360364510449852  3.4366050522109930  2.0404822674900163
  4.3604962840947357  6.3114133546159277 13.3407760105247331
  2.8646635489550172  3.5494749477890055 12.1626877325099887
  3.5594569909414884  2.0234716223008840  3.9168437674576575
  3.4608989094042175  2.1387058354201387  9.5181990382465340
  4.1402037159052618  0.6746666453840677  0.8623939894752626
  2.2034054166395975  4.9053568634254416  3.5377560264343346
  6.2972945833604053  2.0807231365745618 10.6654139735656592
  6.4902483998739013  2.2657351229257556  4.9866258658712539
  7.2650340940897058  6.3042700166024428 12.1349233885959293
  1.2356659059102963  0.6818099833975536  2.0682466114040703
  2.0104516001260975  4.7203448770742442  9.2165441341287444
  2.7738334228787829  0.0691619459424295  2.6649068064641441
  1.5696899178038319  1.6300248172651526 11.9218572816787969
  5.7268665771212195  6.9169180540575699 11.5382631935358511
  1.8249741178690435  1.3818084158862931  5.8390742092264523
  2.7466727399135364  6.3598848193138986  4.4029356268427451
  1.2936792812603513  3.0605880957259552  9.4328609227422024
  4.8538382259524990  2.8360909094808679 11.3181561940990107
  6.6757258821309549  5.6042715841137065  8.3640957907735469
  5.7540272600864633  0.6261951806861058  9.8002343731572488
  3.5553895087263241  4.4305753321491164  8.3966994691433730
  2.3296206260670353  5.4416616292973572 10.8502771319154547
  7.2070207187396500  3.9254919042740437  4.7703090772577941
  3.6468617740475420  4.1499890905191323  2.8850138059009902
  6.9310100821961633  5.3560551827348473  2.2813127183212023
  6.1710793739329635  1.5444183707026407  3.3528928680845445
  4.9453104912736761  2.5555046678508817  5.8064705308566333
