Fe Pb Br  O 
 1.0000000000000000
     3.9307587827952926   -0.0000000000000000    0.0000000000000002
     0.0000000000000006    3.9307587827952926    0.0000000000000002
    -0.0000000000000000   -0.0000000000000000   15.3939246426421956
 Fe  Pb  Br  O  
   3   4   1   8
Cartesian
  0.0000000000000000  0.0000000000000000  3.8123044771201355
  0.0000000000000000  0.0000000000000000 11.5816155228798667
  0.0000000000000000  0.0000000000000000  0.0000000000000000
  1.9653799999999999  1.9653799999999999  1.7704710196505788
  1.9653799999999999  1.9653799999999999 13.6234489803494245
  1.9653799999999999  1.9653799999999999  5.6727100439435345
  1.9653799999999999  1.9653799999999999  9.7212099560564660
  0.0000000000000000  0.0000000000000000  7.6969599999999998
  0.0000000000000000  1.9653799999999999  4.2354943954611208
  0.0000000000000000  1.9653799999999999 11.1584256045388752
  1.9653799999999999  0.0000000000000000  4.2354943954611208
  1.9653799999999999  0.0000000000000000 11.1584256045388752
  0.0000000000000000  0.0000000000000000  1.9302862110097860
  0.0000000000000000  0.0000000000000000 13.4636337889902151
  0.0000000000000000  1.9653799999999999  0.0000000000000000
  1.9653799999999999  0.0000000000000000  0.0000000000000000
