Li Ho  S  O 
 1.0000000000000000
     7.4650099998335673   -0.0000000000000000    0.0000000000000005
     0.0000000000000012    7.4650099998335673    0.0000000000000005
    -0.0000000000000000   -0.0000000000000000    5.8222217421281162
 Li  Ho  S   O  
   2   2   4  16
Cartesian
  0.0000000000000000  3.7325050000000002  4.3666649999999994
  3.7325050000000002  0.0000000000000000  1.4555549999999999
  0.0000000000000000  3.7325050000000002  1.4555549999999999
  3.7325050000000002  0.0000000000000000  4.3666649999999994
  5.7935885098930990  5.4039264901069011  4.3666649999999994
  1.6714214901069020  2.0610835098930971  4.3666649999999994
  5.4039264901069011  1.6714214901069020  1.4555549999999999
  2.0610835098930971  5.7935885098930990  1.4555549999999999
  5.2926471563796467  3.0319226158809909  2.0231728956982340
  2.1723628436203581  4.4330873841190108  2.0231728956982340
  0.7005823841190106  5.9048678436203534  0.8879371043017662
  6.7644276158809902  1.5601421563796434  0.8879371043017662
  3.0319226158809909  2.1723628436203581  3.7990471043017653
  4.4330873841190108  5.2926471563796467  3.7990471043017653
  1.3895208234729817  3.0956954633502374  5.4328107203590141
  3.0956954633502374  6.0754891765270145  0.3894092796409868
  2.3429841765270187  6.8282004633502389  2.5217007203590129
  5.1220258234729856  0.6368095366497628  2.5217007203590129
  1.5601421563796434  0.7005823841190106  4.9342828956982343
  4.3693145366497612  1.3895208234729817  0.3894092796409868
  0.6368095366497628  2.3429841765270187  3.3005192796409859
  6.8282004633502389  5.1220258234729856  3.3005192796409859
  6.0754891765270145  4.3693145366497612  5.4328107203590141
  5.9048678436203534  6.7644276158809902  4.9342828956982343
