Li Mn Co  O 
 1.0000000000000000
     4.7838118553411535    0.1885323617468051   -0.8601333330453148
    -1.1335837232433024    4.7920290811524255   -0.6907841227876172
     0.2377212775889078   -0.3636393466877585    9.8315557833125702
 Li  Mn  Co  O  
   8   2   4  14
Cartesian
  2.5107650000000001 -0.0875550000000000  4.4857149999999999
  0.3830089949917069  0.4599601503678081  6.2569500151515776
  2.9507919914180381  1.1623536467179192  7.0935813528191680
  0.9371580085819599  3.4545663532820807  1.1870686471808329
  3.5049410050082921  4.1569598496321909  2.0236999848484207
  0.8239621728824871  1.7557720413852234  8.6855166442139193
  3.0639878271175127  2.8611479586147772 -0.4048666442139155
  2.3919049999999999  0.0942650000000000 -0.4300650000000000
  3.3421378023176307  2.6552262016197123  4.4869101213688465
  0.5458121976823666  1.9616937983802887  3.7937398786311487
  0.1921283461890061  0.6507101836612252  1.2216339206596583
  2.7859806096091302  1.3849311212808597  2.0444523862804425
  1.1019693903908701  3.2319888787191418  6.2361976137195594
  3.6958216538109943  3.9662098163387736  7.0590160793403403
 -0.3363680267447598  3.8803319426439495 -0.3322568569156891
  2.0788475739244259  2.9179710698325363  3.0176399289905271
 -0.0501409744656367  3.5753011352230373  4.6389380481602158
  2.5811169361746527  4.1723483301301174  5.4551635197765460
  1.6504860064159612  1.7105789401072469  0.5853114723954742
  4.2604601222869780  2.3879538094376089  1.3487000795457207
  1.4732966335487396 -0.0592637144616939  7.7733152540596837
  4.2243180267447595  0.7365880573560500  8.6129068569156839
  1.8091024260755713  1.6989489301674634  5.2630100710094698
 -0.3725101222869776  2.2289661905623896  6.9319499204542776
  2.2374639935840377  2.9063410598927542  7.6953385276045232
  1.3068330638253467  0.4445716698698832  2.8254864802234554
  3.9380909744656369  1.0416188647769622  3.6417119518397874
  2.4146533664512693  4.6761837144616605  0.5073347459403212
