 C  N 
 1.0000000000000000
     3.1485863203545827   -0.0000000000000000   -0.0000000000000000
    -0.0000000000000000    3.1485863203545827   -0.0000000000000000
     0.0000000000000000    0.0000000000000000    3.1485863203545827
 C   N  
   3   1
Cartesian
  1.5742950000000000  1.5742950000000000  0.0000000000000000
  1.5742950000000000  0.0000000000000000  1.5742950000000000
  0.0000000000000000  1.5742950000000000  1.5742950000000000
  0.0000000000000000  0.0000000000000000  0.0000000000000000
