Cd Hg 
 1.0000000000000000
     3.1121399234249707   -0.0000000025202235    0.0000000000000002
    -1.5560696901223805    2.6951923906203845    0.0000000000000002
    -0.0000000000000000   -0.0000000000000000   11.2126292290058363
 Cd  Hg 
   3   1
Cartesian
  0.0000000000000000  0.0000000000000000  0.0000000000000000
  0.0000000000000112  1.7967933333333270  8.4460051884036904
  0.0000000000000112  1.7967933333333270  2.7666248115963099
  0.0000000000000000  0.0000000000000000  5.6063150000000004
