Hf Ge 
 1.0000000000000000
     5.8844575752950643   -0.0000000000000000   -0.0000000000000000
     0.0000000000000000    5.8844575752950643   -0.0000000000000000
     0.0000000000000000   -0.0000000000000000    5.8844575752950643
 Hf  Ge 
   1   7
Cartesian
  2.9422299999999999  2.9422299999999999  2.9422299999999999
  4.4547509867391470  4.4547509867391470  4.4547509867391470
  2.9422299999999999  0.0000000000000000  0.0000000000000000
  4.4547509867391470  1.4297090132608536  1.4297090132608536
  0.0000000000000000  2.9422299999999999  0.0000000000000000
  1.4297090132608536  4.4547509867391470  1.4297090132608536
  0.0000000000000000  0.0000000000000000  2.9422299999999999
  1.4297090132608536  1.4297090132608536  4.4547509867391470
