Yb Cu Sb 
 1.0000000000000000
     2.2505654792350795   -3.8980933712735566    0.0000000000000000
     2.2505654792350795    3.8980933712735566   -0.0000000000000000
     0.0000000000000000    0.0000000000000000    7.3908459685605870
 Yb  Cu  Sb 
   2   2   2
Cartesian
  0.0000000000000000  0.0000000000000000  1.9745376200376141
  0.0000000000000000  0.0000000000000000  5.6699626200376150
  2.2505700000000002 -1.2993659320599749  3.2812190925076785
  2.2505700000000002  1.2993659320599749  6.9766440925076791
  2.2505700000000002  1.2993659320599749  3.9754149374546759
  2.2505700000000002 -1.2993659320599749  0.2799899374546729
