Mn Fe Sb  O 
 1.0000000000000000
     5.3307365167933307    0.0000000000000000    0.0000000000000000
     0.0000000000000000    4.3134088549392509    2.8985825009846891
     0.0000000000000000   -0.0180582737481919    9.1021295631564101
 Mn  Fe  Sb  O  
   4   2   2  12
Cartesian
  5.0396840702458165  1.1521436705498815  7.5564873415918257
  2.9564259297541828  1.1611736705498814  3.0054223415918244
  0.2910559297541849  3.1432063294501180  4.4442226584081785
  2.3743140702458150  3.1341763294501179  8.9952876584081753
  0.0000000000000000  2.1567050000000001  1.4492900000000000
  2.6653699999999998  2.1476750000000000  6.0003550000000008
  0.0000000000000000 -0.0090300000000000  4.5510650000000004
  2.6653699999999998  0.0000000000000000  0.0000000000000000
  5.0097494950383199  0.5505716329239295  2.5844856807341752
  2.9863605049616795  0.5415416329239295  7.1355506807341715
  0.9903677719160215  1.1251089386920645  9.2113871779023206
  1.6750022280839789  1.1341389386920646  4.6603221779023203
  4.3403722280839778  3.1702410613079346  2.7893228220976787
  4.3019451615351239  1.6564142566920066  5.0888781300357699
  1.0287948384648755  2.6389357433079925  6.9118318699642307
  1.6365751615351236  2.6479657433079926  2.3607668699642299
  2.3443794950383210  3.7538083670760702  4.8651593192658247
  3.6941648384648751  1.6473842566920065  9.6399431300357694
  3.6557377719160220  3.1612110613079349  7.3403878220976795
  0.3209905049616788  3.7447783670760701  9.4162243192658295
