Al Fe  P  O 
 1.0000000000000000
     5.4806740361592965    0.0062168222117618    0.0000073057945811
    -1.0557064920243613    7.1004508175432397   -0.0000144965165777
     0.0000166174621790   -0.0000175902203179   10.4774595532908066
 Al  Fe  P   O  
   4   4   4  20
Cartesian
  2.6140842782659068  2.5601560820610096  1.8293227849121219
  4.5512333206148172  4.5496123746114661  7.0680579667210699
 -0.1262533206348192  2.5570376254085350  3.4093915558189485
  1.8109066830741041  4.5464939303789880  8.6481372151079565
  0.5430094064022588  0.1201820115233477  1.4879991407559774
  3.8819695378877368  6.9864750889266851  8.9894608592340184
  3.2833416834906517  0.1232869346518985  3.7507394284341249
  1.1416383165093482  6.9833630653481027  6.7267205715658722
  2.1862628574258274  1.5775666695920845  9.4491183683741244
  2.2387116619041887  5.5290833241879138  1.0283416316158758
  4.9266079072157485  1.5806737359860357  6.2670780888003694
 -0.5016279072157499  5.5259762640139618  4.2103819111996339
  2.6666103760826108  4.3187727946354819  1.8778700667958059
  1.7583641432473673  2.7878771991445146  8.5995899331941974
  4.4987039088276175  2.7909834047842046  7.1165987905893680
 -0.0737293894976416  4.3156665889957964  3.3608612094006332
  3.6651703231059396  0.8404069325251032  5.7428677034848192
  0.6558716842925295  5.1680008586336248  7.4915156836992658
  1.0287723331100649  1.9355427055287482  2.2528012479959920
  0.2892217700211901  2.0469212824948375  5.0584245051960224
  1.3954307358600624  5.0566029545077225 10.2971517502690979
  4.1357582299788067  5.0597287175051608  5.4190354948039756
  3.0295492641399355  2.0500470454922763  0.1803082497308905
  1.3887138839867177  6.4922734854826745  1.8949835089084719
  0.2959361902515026  0.6112724029862738  7.1337024780631921
  3.0362661160132816  0.6143765145173224  8.5824764910915299
  4.1290492904184823  6.4953776032337265  3.3437575219468001
  0.9248279750157778  0.8372952424601728  9.9733274369921112
  0.7598096768940636  6.2662430674749006  4.7345922965151841
  3.5001465443142328  6.2693547513198249  0.5041325629978937
  3.3962186282299438  5.1711073069112530  8.2246587520240073
  3.7691028350374838  1.9386491351463748  2.9859443162907322
