Mg Ag Au 
 1.0000000000000000
     4.0283737325637841    0.0000000020166345    2.3257828548140003
     1.3427909146571970    3.7979873710388095    2.3257828548140003
     0.0000000000000000    0.0000000000000000    4.6515657096280005
 Mg  Ag  Au 
   1   1   2
Cartesian
  0.0000000000000000  0.0000000000000000  0.0000000000000000
  2.6855799999999999  1.8989950000000000  4.6515649999999997
  4.0283699999999998  2.8484924999999999  6.9773475000000005
  1.3427899999999999  0.9494975000000000  2.3257824999999999
