Yb Al Ag 
 1.0000000000000000
     4.1604329487920753   -0.0000000035234473    2.4020273234114509
     1.3868113108360627    3.9224938233906856    2.4020273234114509
    -0.0000000036477407   -0.0000000025793420    4.8040536594590462
 Yb  Al  Ag 
   1   1   2
Cartesian
  0.0000000000000000  0.0000000000000000  0.0000000000000000
  2.7736200000000002  1.9612449999999999  4.8040550000000000
  4.1604299999999999  2.9418674999999999  7.2060824999999999
  1.3868100000000001  0.9806225000000000  2.4020275000000000
