Hf Mg  V 
 1.0000000000000000
     6.3727544657842712    0.3197139831487550    0.0000000000000000
    -2.9094967072384703    5.0393954375058545    0.0000000000000000
     0.0000000000000000    0.0000000000000000    5.0071841201673744
 Hf  Mg  V  
   1   6   1
Cartesian
 -1.4566695416375739  4.1983921072307435  1.2517950000000000
  3.1925552511986601  1.8414461678954546  1.2517950000000000
  1.7362689223178729  4.3638071667165708  1.2517950000000000
  1.6354384803207918  0.9672666862183676  3.7553850000000000
  0.2006434598292246  3.4524036602794421  3.7553850000000000
  5.0475392839532605  1.2344025805667276  3.7553850000000000
  3.4330871254467978  3.6619018114001567  3.7553850000000000
  0.0641341090709323  1.7168248590925939  1.2517950000000000
