Dy Al  B 
 1.0000000000000000
    -2.9525637125981565    4.1294427929523909    5.2564407344185238
     2.9525637125981565   -4.1294427929523909    5.2564407344185238
     2.9525637125981565    4.1294427929523909   -5.2564407344185238
 Dy  Al  B  
   2   2  28
Cartesian
  2.9525600000000001 -1.2276142280771198  2.6282199999999993
  0.0000000000000002  5.3570542280771214  2.6282200000000002
 -1.4762800000000000  2.0647199999999999  2.6282199999999998
  1.4762800000000000  2.0647199999999999  2.6282199999999998
  0.0000029525599930  0.2896022273345881  8.7547733808797261
  1.4636102595862603  0.3988381043417676  0.8369816310520860
  1.4889467878537468  4.5282739749017775 -0.8369763746120988
  1.4889467878537470  3.7306060250982220  0.8369763746120998
 -1.4889438352937558  3.7306018956582343  4.4194583689479146
  1.4889497404137391  3.7306018956582330  4.4194583689479163
  1.4636132121462526 -0.3988339749017766  6.0934163746120982
  1.4636132121462528  0.3988339749017784  4.4194636253879001
  4.4415038352937541  0.3988381043417667  0.8369816310520870
  0.9657240507717222  1.3370081317310178  5.8985163037907560
  4.9393959492282775  1.3370081317310165 -0.6420763037907556
  1.9868359492282992  2.7924318682689528  5.8985163037907933
  0.9657240507717010 -1.3370081317309870  4.6143636962092058
  1.9868359492282772  2.7924318682689835 -0.6420763037907566
 -1.9868359492282774  2.7924318682689826  5.8985163037907560
  1.9868359492282981  5.4664481317309876  0.6420763037907945
  2.9525600000000005  2.7616079826247582  4.3134160642003634
  2.9525599999999796  2.7616079826247870  0.9430239357996725
  0.0000000000000217  1.3678320173752128  4.3134160642003243
 -0.0000000000000002  1.3678320173752434  0.9430239357996367
  2.9525570474400076  1.0557526295542519  3.7700729134422626
  2.9525600000000014  1.0557485001142608  1.4863723429977223
  0.0000000000000006  3.0736914998857383  3.7700676570022762
  0.0000029525599931  3.0736873704457488  1.4863670865577361
  2.9525599999999792  3.8398336432254503 -1.7581013626802473
  2.9525570474400076  3.8398377726654109 -3.4983333808797279
  0.0000000000000203  0.2896063567745500  7.0145413626802471
  0.9657240507717016  1.3370081317310465 -0.6420763037907943
