Sm Sb Se 
 1.0000000000000000
    11.1897559297388174   -0.0278219400437547    1.2315639371633136
    -9.0097800572283457    6.6359105801020908    1.2315639370741496
    -0.0035230078712352   -0.0106793058056586    7.3606328887743651
 Sm  Sb  Se 
  10   3   7
Cartesian
  0.5359273382195342  1.6245286452434520  6.0768015174368859
 -2.3259474259364650  6.2858499259291802  3.5967068203677530
 -0.3927353783857991  5.6342608656687911  7.3573041949629774
  5.6096581940633570  3.6679322288845051  3.5967068203677544
 -3.4331981940633582  2.9294777711154958  6.2270431796322478
 -1.4917587905986276  2.3028381631153585  2.4664458050370204
  4.5024074259364655  0.3115600740708205  6.2270431796322478
  1.6405326617804656  4.9728813547565496  3.7469484825631154
  3.6682187905986270  4.2945718368846411  7.3573041949629765
  2.5691953783857984  0.9631491343312095  2.4664458050370208
  1.0899900000000002  3.3040449999999999  1.2315600000000000
 -4.9028899781309665  5.2751463413310731  4.9118750000000002
  7.0793499781309643  1.3222636586689280  4.9118749999999993
  5.1318154293647869  1.9706664493785018  1.2315600000000000
  9.2397832946114296  0.6154678308614330  1.2315600000000000
 -0.9282638923111817  3.9639365273026481  4.9118750000000002
 -0.0017600000000000 -0.0053400000000000  3.6803149999999998
  3.1047238923111826  2.6334734726973514  4.9118749999999993
 -7.0598032946114317  5.9926221691385679  1.2315600000000002
 -2.9518354293647886  4.6374235506214978  1.2315599999999998
