Yb Ba Al Si  N  O 
 1.0000000000000000
     6.1552257198415026   -0.0000000000390568    0.0000000000000004
    -3.0776128543724024    5.3305818426134417    0.0000000000000004
    -0.0000000000000000   -0.0000000000000000   10.1652019724221070
 Yb  Ba  Al  Si  N   O  
   2   2   6   2   8   6
Cartesian
  3.0776166666666454  1.7768600000000128  9.4065138586342485
  0.0000033333333554  3.5537199999999878  4.3239138586342483
  3.0776166666666454  1.7768600000000128  5.6049953463342126
  0.0000033333333554  3.5537199999999878  0.5223953463342134
  0.0000016579215501  1.7675367217376698  7.5345855147775653
 -1.5468775331832378  4.4468116391311776  7.5345855147775653
  3.0776183420784484  3.5630432782623314  2.4519855147775642
  1.5468858752616255  4.4468116391311892  7.5345855147775653
  4.6244975331832379  0.8837683608688219  2.4519855147775642
  1.5307341247383772  0.8837683608688103  2.4519855147775642
  0.0000000000000000  0.0000000000000000  0.0067212589078635
  0.0000000000000000  0.0000000000000000  5.0893212589078631
  0.0000000000000000  0.0000000000000000  3.2707289001738427
  0.0000000000000000  0.0000000000000000  8.3533289001738424
  1.3925791369507701  0.8040046676645599  0.6151915549061753
  4.7626523713366744  0.8040046676645706  0.6151915549061753
  0.0000015082873769  1.6080093353291691  5.6977915549061775
  3.0776184917126237  3.7225706646708319  0.6151915549061753
 -1.6850323713366737  4.5265753323354296  5.6977915549061775
  1.6850408630492306  4.5265753323354403  5.6977915549061775
  1.6516466176443314  2.6001437809295385  2.9781839694995202
  0.0000048777877264  5.2002875618591142  8.0607839694995249
  1.4259733823556686  2.7304362190704614  8.0607839694995249
  3.0776151222122738  0.1302924381408855  2.9781839694995202
 -1.4259682601434587  2.7304362190704610  8.0607839694995249
  4.5035882601434585  2.6001437809295393  2.9781839694995202
