Sm In  N 
 1.0000000000000000
     4.9335451362610137    0.0000000000000000   -0.0000000000000000
     0.0000000000000000    4.9335451362610137    0.0000000000000000
     0.0000000000000000    0.0000000000000000    4.9335451362610137
 Sm  In  N  
   3   1   1
Cartesian
  2.4667750000000002  2.4667750000000002  0.0000000000000000
  0.0000000000000000  2.4667750000000002  2.4667750000000002
  2.4667750000000002  0.0000000000000000  2.4667750000000002
  0.0000000000000000  0.0000000000000000  0.0000000000000000
  2.4667750000000002  2.4667750000000002  2.4667750000000002
