Mn Ir Rh 
 1.0000000000000000
     3.7120129951496423   -0.0000000000000000    2.1431317019850353
     1.2373376650498809    3.4997194142971990    2.1431317019850353
    -0.0000000000000000   -0.0000000000000000    4.2862634039700698
 Mn  Ir  Rh 
   2   1   1
Cartesian
  1.2373375000000000  0.8749300000000000  2.1431300000000002
  3.7120125000000002  2.6247900000000000  6.4293900000000006
  2.4746750000000000  1.7498600000000000  4.2862600000000004
  0.0000000000000000  0.0000000000000000  0.0000000000000000
