Rb Al Hg Cl 
 1.0000000000000000
     6.3613344403892986    0.0000000020635072    3.6727186110909229
     2.1204444866833496    5.9975243338437387    3.6727186110909225
    -0.0000000079727795   -0.0000000056376074    7.3454362498153749
 Rb  Al  Hg  Cl 
   2   1   1   6
Cartesian
  6.3613274999999998  4.4981399999999994 11.0181600000000000
  2.1204424999999998  1.4993799999999999  3.6727200000000000
  0.0000000000000000  0.0000000000000000  0.0000000000000000
  4.2408849999999996  2.9987599999999999  7.3454400000000000
  5.4039554497913551  1.3539311352983716  5.3309420515235226
  1.9147468429324253  1.3539311352974996  7.3454400000007816
  3.0778145502086454  4.6435888647016279  9.3599379484764800
  3.0778145502095486  4.6435888647022674  5.3309420515235226
  5.4039554497904509  1.3539311352977330  9.3599379484764782
  6.5670231570675748  4.6435888647024992  7.3454399999992175
