Ho Ni  C 
 1.0000000000000000
     3.5479736836863345    0.0000000000000000    0.0000000000000000
     0.0000000000000000    3.6069822321674323   -1.0677149235286707
     0.0000000000000000    0.0046021762422604    3.7616903618764730
 Ho  Ni  C  
   1   1   2
Cartesian
  0.0000000000000000 -0.0001059801634948  0.0001420784598032
  1.7739849999999999  2.2125945736548203  0.8016222131455574
  1.7739849999999999  0.5439543521889026  1.8973895714696918
  1.7739849999999999  1.6378547366997664  2.7133609075249536
