Ag Bi  S Cl 
 1.0000000000000000
     0.0000000000000000    7.8160897585375713    0.0197911459957492
     4.0263034247012941    0.0000000000000000    0.0000000000000000
     0.0000000000000000   -2.4490801480997515  -10.5702880036791509
 Ag  Bi  S   Cl 
   2   4   6   2
Cartesian
  1.0065750000000000  5.9082940736620957 -6.2360232623781018
  3.0197250000000002 -0.5412840736620946 -4.3144767376218960
  1.0065750000000000  2.0039420793927913 -6.9323560622871652
  3.0197250000000002  3.3630679206072087 -3.6181439377128366
  3.0197250000000002 -0.8030328049635137 -9.7762513801267836
  1.0065750000000000  6.1700428049635123 -0.7742486198732141
  1.0065750000000000  5.3917509526492911 -8.9799107320176592
  3.0197250000000002  3.9054979697063459 -6.1951878574934618
  1.0065750000000000  1.4615120302936528 -4.3553121425065342
  3.0197250000000002 -0.0247409526492890 -1.5705892679823441
  3.0197250000000002 -0.0613888994502729 -6.9833635739607480
  1.0065750000000000  5.4283988994502712 -3.5671364260392546
  1.0065750000000000  2.9282451070197917 -1.0635406378709271
  3.0197250000000002  2.4387648929802088 -9.4869593621290722
