Li  V  O  F 
 1.0000000000000000
     5.4529782354411509   -0.0157953415066319   -0.0092591040014422
    -0.6371883838624813    7.4732833944970105    0.0099246910375253
    -2.3291046714328405   -3.6785475521772639    7.5189061079005386
 Li  V   O   F  
   3   6   3  15
Cartesian
 -0.2312490463463515 -1.5863638282008887  7.4656500812647186
  3.0608300124817278  1.5817881402231149  4.8830001931301963
  1.8542299392829680  5.8366576021346290  0.1349490766154407
  2.3425090238285304  3.8066474017105625  2.4454264161831283
  2.7251867203904170  0.0193948162541077  2.5872222933779447
 -0.2508345933631068  3.7316713735266971  0.1108550762579155
  0.2085118970010243  0.0660569272517668  4.9384095635401843
 -2.9047596703975214  3.8223298931933791  7.4491247523456154
 -0.3272295580941152  3.8852674378757084  5.0624049433281035
 -1.3944455920132544  4.1783932446145409  6.5036554035010434
  1.6778437287860053  0.4328782720457332  3.9909305940271196
  1.2913828975490527  4.1142107577253482  1.0038511674646975
  1.2094609582599882 -0.6285868418819061  1.4275431054182639
  2.3208532366749997  5.6189653662354671  3.1806787628931961
  3.1642157965895308  6.9479883747863491  0.9090549181512003
  2.6110767632010718  1.8679835769223740  1.7518027926924311
  3.4686737113920922  3.2058277406260678  4.0500363211671973
  0.7903673927547465  3.2528553859179623  3.5548427944056207
  1.1183079970502863 -0.4986366665198246  6.6574732108764048
 -1.1050126392117534  0.6564604048634423  3.5620353930142565
 -0.1466003851702852  1.9109149034187456  5.7691588671957854
  2.6270226703355695  1.8614114002234994  6.7373959315045884
  0.1574062542346742 -1.7952129705634527  4.2999445846342086
 -0.0690632490002076  1.8336869739316723  0.7017768248326329
 -1.5067183868766292 -0.4235834051900720  5.9921899719016753
  1.3383528874354549  4.3616463911965955  5.9797810005828484
  4.0268517238151036  4.2819733002382883  1.5660496229336074
