Ge  O 
 1.0000000000000000
     2.9108414630804784    0.0000000000000000    0.0000000000000000
     0.0000000000000000    4.4568810566453037    0.0000000000000000
     0.0000000000000000    0.0000000000000000    4.4571945280333463
 Ge  O  
   2   4
Cartesian
  0.0000000000000000  0.0000000000000000  0.0000000000000000
  1.4554199999999999  2.2284400000000000  2.2285949999999999
  0.0000000000000000  3.0922967298020088  1.3646561406477977
  0.0000000000000000  1.3645832701979923  3.0925338593522049
  1.4554199999999999  0.8638567298020080  0.8639388593522022
  1.4554199999999999  3.5930232701979912  3.5932511406477947
