Zn Si Sb  O 
 1.0000000000000000
    10.0741967032210056   -0.0000000031867560   -3.5617666567268071
    -5.0370978564031876    8.7245105791429527   -3.5617666567268076
     0.0000000014417470    0.0000000024971790   10.6852989783240364
 Zn  Si  Sb  O  
  12  12   8  48
Cartesian
  0.0000000000000002  6.5433824999999999 -2.6713287500000007
  0.6296375000000000  3.2716912499999999 -0.8904437500000000
  1.8889124999999996  7.6339462500000002  2.6713200000000001
  5.6667374999999991  5.4528187500000005 -2.6713300000000006
  5.0370999999999997  2.1811275000000001  6.2330887500000003
  4.4074625000000003  5.4528187500000005  4.4522037499999998
 -1.8889125000000000  7.6339462500000002  2.6713212499999992
  5.0370999999999988  6.5433824999999999  0.8904362499999998
 -0.6296375000000000  3.2716912499999999  6.2330899999999998
  3.1481875000000001  1.0905637500000001  0.8904399999999999
  0.0000000000000000  2.1811275000000001  2.6713237500000000
  6.9260124999999997  1.0905637500000001  0.8904387499999997
  0.6296375000000002  5.4528187500000005  4.4522049999999993
 -0.6296375000000000  5.4528187500000005  0.8904387499999997
  2.5185499999999994  6.5433824999999999 -0.8904462500000003
  7.5556499999999991  2.1811275000000001 -2.6713287500000007
 -3.1481874999999997  7.6339462500000002 -0.8904450000000002
  5.6667375000000000  3.2716912499999999  2.6713212499999992
  3.1481875000000001  7.6339462500000002 -4.4522137500000003
 -2.5185499999999998  6.5433824999999999  6.2330887499999994
  4.4074624999999994  3.2716912499999999 -0.8904450000000002
  2.5185500000000003  2.1811275000000001  4.4522062499999997
  1.8889125000000000  1.0905637500000001  8.0139737499999999
  8.1852874999999994  1.0905637500000001  4.4522049999999993
  2.5185499999999998  4.3622550000000002 -3.5617700000000001
  5.0370999999999997  0.0000000000000000 -1.7808850000000001
  2.5185499999999998  4.3622550000000002  1.7808799999999998
  5.0370999999999997  0.0000000000000000  3.5617649999999998
 -2.5185499999999998  4.3622550000000002  3.5617649999999998
  0.0000000000000000  0.0000000000000000  5.3426499999999999
 -2.5185499999999998  4.3622550000000002 -1.7808850000000001
  0.0000000000000000  0.0000000000000000  0.0000000000000000
  6.2770264129122468  6.1523054988032486 -4.8541304223035455
  6.7765805608733585  3.4374573568921249 -3.4411768867176207
  5.7431041278039405  3.4970021443029253  4.3209793284563940
  3.3815008790619410  7.5874174943461608  4.5834208430851389
  0.0343782113471601  6.9344595011963452  3.9743173991762624
 -0.0343782113467009  6.9344595011969146  1.3683353378722813
  4.1261769955419192  6.7221733631609286 -1.2923669323249600
  3.7971635128873156  6.1523054988034946 -4.0502930676750406
  6.5701406552280339  0.9247976431078162  7.5360746621277146
  2.6755017883566863  6.3645916368391315  0.7592191569148634
 -3.3814908048618513  7.5874174943459272  0.7592168984758402
  4.7080814802468032  4.5745498625474177  2.2694078961335085
  3.4696811334255755  0.8652528556971727  7.5360757221257479
 -3.8466667414763220  8.5122151374524844  3.6823570532843513
  4.3311059463949970  3.4970021443047479 -2.5401068984758384
  3.2976194391281348  3.4374573568934608  5.2220529467156505
  3.8466667414749445  8.5122151374540191  1.6602938753485545
  3.5040593447704733  0.9247976431065983  4.9301042778742517
  5.3661084455546009  4.5745498625460792 -0.4885295776964557
  5.9480129302571889  6.7221733631587854  3.0732321038664905
 -2.6754917141557990  6.3645916368411557  4.5834306715436046
  2.1071861806024406  5.4993475056544812  3.6823461246514424
  1.2399364871126854  2.5722045011965058  7.6120530676750375
  0.9109230044580781  2.0023366368390723  4.8541269323249594
  2.3615982116433103  2.3599183631608698  2.8025408430851351
  0.3290185197531997  4.1499601374525810  1.2923521038664900
 -1.2399264129122496  2.5722045011967536  8.4158904223035425
 -1.7394805608733572  5.2870526431078764  7.0029368867176176
 -0.7060041278039446  5.2275078556970751 -0.7592193284563956
  1.6555991209380596  1.1370925056538381 -1.0216608430851355
  5.0027217886528375  1.7900504988036550 -0.4125573991762618
  5.0714782113467010  1.7900504988030868  2.1934246621277138
  6.6045188665754555  0.8652528556951539  4.9300926008237393
  7.1442861806025544  3.2251624943465695  1.9014731132823794
 -1.5674188665754536  7.8592571443048449 -1.3683326008237366
  7.7125917141557983  2.3599183631588461 -1.0216706715436061
 -0.9109129302571874  2.0023366368412114  0.4885278961335099
 -0.3290084455546020  4.1499601374539203  4.0502895776964554
  1.5330406552295255  7.7997123568934033 -1.3683442778742556
  1.1904332585250570  0.2122948625459818  1.9014661246514408
  1.7394805608718622  5.2870526431065414 -1.6602929467156473
  0.7059940536050016  5.2275078556952517  6.1018668984758397
  8.8837667414763217  0.2122948625475173 -0.1205970532843528
  1.5674188665744240  7.8592571443028287 -3.9743157221257457
 -2.1071861806025534  5.4993475056534296  1.6602868867176193
  8.4185908048618501  1.1370925056540744  2.8025431015241606
 -1.5330406552280331  7.7997123568921847 -3.9743146621277159
  2.9299138193975600  3.2251624943455175 -0.1205861246514410
