Ba  Y Be 
 1.0000000000000000
    -0.0000000000000000    4.1602271919004661    4.1602271919004661
     4.1602271919004661    0.0000000000000000    4.1602271919004661
     4.1602271919004661    4.1602271919004661   -0.0000000000000000
 Ba  Y   Be 
   2   1   1
Cartesian
  2.0801150000000002  2.0801150000000002  2.0801150000000002
  6.2403450000000005  6.2403450000000005  6.2403450000000005
  4.1602300000000003  4.1602300000000003  4.1602300000000003
  0.0000000000000000  0.0000000000000000  0.0000000000000000
