Er Pd Rh 
 1.0000000000000000
     0.0000000000000000    3.4195643743739179    3.4195643743739179
     3.4195643743739179    0.0000000000000000    3.4195643743739179
     3.4195643743739179    3.4195643743739179    0.0000000000000000
 Er  Pd  Rh 
   2   1   1
Cartesian
  0.0000000000000000  0.0000000000000000  0.0000000000000000
  3.4195531608800174  3.4195531608800174  3.4195531608800174
  1.7097800000000001  1.7097800000000001  1.7097800000000001
  5.1293400000000000  5.1293400000000000  5.1293400000000000
