Co  O  F 
 1.0000000000000000
     4.5983043866717832   -0.0920845396704313    0.0000000000000000
    -0.5845518635521066    4.5619267854719361    0.0000000000000000
     0.0000000000000000    0.0000000000000000    2.8950000958021200
 Co  O   F  
   2   2   2
Cartesian
  0.0000000000000000  0.0000000000000000  0.0000000000000000
  2.0068750000000000  2.2349250000000001  1.4475000000000000
  1.2140529585666187  1.3520111159978334  0.0000000000000000
  2.7996970414333835  3.1178388840021651  0.0000000000000000
  0.4437482247982887  3.6385557519990339  1.4475000000000000
  3.5700017752017108  0.8312942480009644  1.4475000000000000
