Tb Ni As 
 1.0000000000000000
     7.2621150677235349    0.0000000000000000    0.0000000000000000
    -0.0000000000000000    7.2621150677235349    0.0000000000000000
     0.0000000000000000    0.0000000000000000    3.7784230462577200
 Tb  Ni  As 
   2   8   4
Cartesian
  0.0000000000000000  0.0000000000000000  1.8892100000000001
  3.6310600000000002  3.6310600000000002  0.0000000000000000
  0.6401786021960526  2.5200083787086696  0.0000000000000000
  6.6219413978039467  4.7421116212913352  0.0000000000000000
  1.1110516212913319  4.2712386021960533  1.8892100000000001
  6.1510683787086657  2.9908813978039479  1.8892100000000001
  2.9908813978039479  6.1510683787086657  1.8892100000000001
  4.2712386021960533  1.1110516212913319  1.8892100000000001
  2.5200083787086696  0.6401786021960526  0.0000000000000000
  4.7421116212913352  6.6219413978039467  0.0000000000000000
  1.5824193619299658  5.6797006380700346  0.0000000000000000
  5.6797006380700346  1.5824193619299658  0.0000000000000000
  5.2134793619299664  5.2134793619299664  1.8892100000000001
  2.0486406380700344  2.0486406380700344  1.8892100000000001
