Pr Er 
 1.0000000000000000
     4.6798473946813210   -0.0241957547876354   -4.1982930843832067
    -0.9480995514609037    4.5828663860705054   -4.1982930843832067
     0.0198067513726711    0.0241957547983191    6.2869900709626281
 Pr  Er 
   3   1
Cartesian
  3.2827674999999998  1.1396675000000001 -1.0547949999999999
  0.4687925000000000  3.4432024999999999 -1.0547949999999999
  1.8658750000000000  2.2793349999999997 -4.1982900000000001
  0.0000000000000000  0.0000000000000000  0.0000000000000000
