Sr La Mn  O 
 1.0000000000000000
     5.4723554725491566    0.0006296247584767   -0.0140259561366834
    -0.1117076488585720    7.7821707538524976    0.0002800992996112
     0.0143803062772760   -0.0002133282958190    5.5291703913874759
 Sr  La  Mn  O  
   1   3   4  12
Cartesian
  2.7083227133399563  1.9458160660013215  0.0076736532105191
 -0.0766170499192359  5.8365138450573548  2.7491051945848382
  2.6523524901994984  5.8369644807111181 -0.0073891217995340
 -0.0207298640130441  1.9454627141477283  2.7648300029062560
 -0.0544921836175784  3.8821706045170221  0.0007366321419984
  2.7435904323482041  0.0098934489037247  2.7565851853852363
 -0.0013313701442489  0.0089234151515366  0.0006225728054834
  2.6872553350723933  3.8816141136187428  2.7567039553750741
  2.6587951746251397  5.8368413692301528  2.4690652009097738
 -0.0143813843485942  1.9453503319563128  5.2297786643369228
  1.2064423600046721  0.1668889206322467  1.5451279631114805
  3.9339758069678670  4.1394257354647621  4.2599750924407962
  2.7161048367123724  1.9457460235936579  2.9965561821306603
  3.9955946635846633  0.1433776553807406  1.2609925506924480
  4.1441820258025919  7.5654033771717035  3.9970016831150534
  1.4275843673350568  3.7482258398358463  1.2675211439133927
  4.2182436603546494  3.7247575981725167  1.5374822605914802
  1.1813332201835383  4.1081299582203350  4.0044792015501498
 -0.0830109653300293  5.8366141874146962  0.2743670184251946
  1.3929612175821151  7.5341403152385356  4.2664604793126824
