 V  O  F 
 1.0000000000000000
     4.9662899432727565   -0.0000000000000000    0.0000000000000003
     0.0000000000000009    5.5873268776228064    0.0000000000000003
     0.0000000000000000   -0.0000000000000000    9.3010978831544904
 V   O   F  
   4   4  12
Cartesian
  2.3572057927173020  0.3259495638004838  6.8947345693292821
  2.3572057927173020  2.4677154361995157  2.2441845693292826
  4.8403507927173077  3.1196145638004866  7.0569154306707178
  4.8403507927173077  5.2613804361995129  2.4063654306707178
  1.3215357490774911  1.3700889729720207  1.6934580548656157
  1.3215357490774911  1.4235760270279789  6.3440080548656104
  3.8046807490774914  4.2172410270279777  7.6076419451343895
  3.8046807490774914  4.1637539729720219  2.9570919451343820
  3.7102736819134376  1.3332252767483956  2.8820809807122023
  3.7102736819134376  1.4604397232516022  7.5326309807122049
  3.2559849533198957  2.8960943290665764  0.7886118298051428
  3.2559849533198957 -0.1024293290665775  5.4391618298051450
  1.7556372339518187  2.8189305002601448  3.8599002019902122
  0.7728399533198949  0.1024293290665764  3.8619381701948581
  1.2271286819134370  4.1268902767483935  1.7684690192877965
  1.2271286819134370  4.2541047232516060  6.4190190192877949
  4.2387822339518184  0.0252655002601470  0.7906497980097877
  0.7728399533198949  2.6912356709334224  8.5124881701948549
  1.7556372339518187 -0.0252655002601470  8.5104502019902100
  4.2387822339518175  2.7683994997398522  5.4411997980097899
