 Y Mn Be 
 1.0000000000000000
    -1.7356638444855881    1.7356638444855881    5.4522668942506050
     1.7356638444855881   -1.7356638444855881    5.4522668942506050
     1.7356638444855881    1.7356638444855881   -5.4522668942506050
 Y   Mn  Be 
   1   2   2
Cartesian
  0.0000000000000000  0.0000000000000000  0.0000000000000000
  0.0000000000000001  1.7356599999999998  2.7261350000000002
  1.7356600000000000  0.0000000000000000  2.7261350000000002
 -0.0000000000000000  0.0000000000000000  6.6730807043186591
  0.0000000000000000 -0.0000000000000000  4.2314592956813426
