Na Nb  O 
 1.0000000000000000
     2.9913669252267394    0.0000000000000000    0.0000000000000000
    -1.4956834626133697    2.5906002723292367   -0.0000000000000000
     0.0000000000000000    0.0000000000000000   11.5919662291081043
 Na  Nb  O  
   2   2   4
Cartesian
  0.0000000000000000  0.0000000000000000  0.0000000000000000
  0.0000000000000000  0.0000000000000000  5.7959849999999999
  0.0000018376500144  1.7270675301999916  8.6939774999999990
  1.4956881623499856  0.8635324698000082  2.8979925000000000
  0.0000018376500144  1.7270675301999916  4.2205406976614945
  1.4956881623499856  0.8635324698000082 10.0165256976614963
  0.0000018376500144  1.7270675301999916  1.5754443023385050
  1.4956881623499856  0.8635324698000082  7.3714293023385045
