Ba Al In Ir Cl  O 
 1.0000000000000000
     2.9546752530248370   -5.1176484920675547    0.0000000000000000
     2.9546752530248370    5.1176484920675547    0.0000000000000000
    -0.0000000000000000   -0.0000000000000000   25.4751641659095753
 Ba  Al  In  Ir  Cl  O  
  10   4   4   2   2  26
Cartesian
  0.0000000000000000  0.0000000000000000 19.1063699999999983
  2.9546800000000002 -1.7058867450999671  1.0144017927772007
  2.9546800000000002  1.7058867450999671 13.7519817927771957
  2.9546800000000002  1.7058867450999671  9.3974787979577954
  2.9546800000000002 -1.7058867450999671 16.0776812020422071
  2.9546800000000002 -1.7058867450999671 22.1350587979577895
  2.9546800000000002  1.7058867450999671 24.4607582072228027
  2.9546800000000002  1.7058867450999671  3.3401012020422089
  2.9546800000000002 -1.7058867450999671 11.7231782072227979
  0.0000000000000000  0.0000000000000000  6.3687899999999997
  2.9546800000000002  1.7058867450999671 17.3696663707306662
  2.9546800000000002 -1.7058867450999671  4.6320863707306676
  2.9546800000000002 -1.7058867450999671  8.1054936292693291
  2.9546800000000002  1.7058867450999671 20.8430736292693339
  0.0000000000000000  0.0000000000000000 15.5948118338722388
  0.0000000000000000  0.0000000000000000  9.8803481661277530
  0.0000000000000000  0.0000000000000000 22.6179281661277614
  0.0000000000000000  0.0000000000000000  2.8572318338720626
  0.0000000000000000  0.0000000000000000 12.7375799999999995
  0.0000000000000000  0.0000000000000000  0.0000000000000000
  2.9546800000000002 -1.7058867450999671 19.1063699999999983
  2.9546800000000002  1.7058867450999671  6.3687899999999997
  2.9546800000000002 -1.7058867450999671  6.3687899999999997
  1.5338061400833853  0.8855423703864423 21.5145496368075797
  1.5338061400833853  0.8855423703864423 16.6981903631924204
  4.3755538599166153 -0.8855423703864399  8.7769696368075909
  4.5261177076529133  0.7986143922443816  1.2131535508712317
  2.9546800000000011 -3.3465652592271891  3.9606103631924090
  2.9546800000000002 -3.5204212155111687 13.9507335508712291
  4.3755538599166153  0.8855423703864402 16.6981903631924204
  1.5338061400833853 -0.8855423703864423  3.9606103631924090
  4.5261177076529133 -0.7986143922443819 24.2620064491287692
  1.3832422923470868 -0.7986143922443790 24.2620064491287692
  4.5261177076529133  0.7986143922443816 11.5244264491287680
  2.9546800000000002  1.7058867450999671 19.1063699999999983
  1.3832422923470868 -0.7986143922443790 13.9507335508712291
  2.9546800000000002 -3.5204212155111687 24.2620064491287692
  1.3832422923470868  0.7986143922443791 11.5244264491287680
  1.5338061400833853 -0.8855423703864423  8.7769696368075909
  2.9546800000000006  3.5204212155111687  1.2131535508712317
  2.9546800000000006  3.5204212155111687 11.5244264491287680
  2.9546800000000011 -3.3465652592271891  8.7769696368075909
  2.9546800000000006  3.3465652592271891 21.5145496368075797
  4.5261177076529133 -0.7986143922443819 13.9507335508712291
  1.3832422923470868  0.7986143922443791  1.2131535508712317
  4.3755538599166153 -0.8855423703864399  3.9606103631924090
  2.9546800000000006  3.3465652592271891 16.6981903631924204
  4.3755538599166153  0.8855423703864402 21.5145496368075797
