Nb  V  O 
 1.0000000000000000
     6.7696394746508366    0.0000000086402975    0.0000000000000000
    -0.0000000086402975    6.7696394746508366    0.0000000000000000
    -0.0000000000000000   -0.0000000000000000    4.1166491521564854
 Nb  V   O  
   2   2  10
Cartesian
  3.3848199999999999  0.0000000000000000  3.3157791909054626
  0.0000000000000000  3.3848199999999999  0.8008708090945357
  0.0000000000000000  0.0000000000000000  2.0583250000000000
  3.3848199999999999  3.3848199999999999  2.0583250000000000
  6.4874785058635123  5.3691265781885971  1.0868193783692151
  1.4005134218113982  6.4874785058635123  3.0298306216307846
  3.3848199999999999  0.0000000000000000  1.0073490556933571
  5.3691265781885971  0.2821614941364842  3.0298306216307846
  0.2821614941364842  1.4005134218113982  1.0868193783692151
  3.1026585058635172  1.9843065781886011  3.0298306216307846
  4.7853334218114032  3.1026585058635172  1.0868193783692151
  0.0000000000000000  3.3848199999999999  3.1093009443066433
  1.9843065781886011  3.6669814941364871  1.0868193783692151
  3.6669814941364871  4.7853334218114032  3.0298306216307846
