Er Sn 
 1.0000000000000000
     4.4160568652018064   -7.6488349296472746   -0.0000000000000000
     4.4160568652018064    7.6488349296472746    0.0000000000000000
     0.0000000000000000    0.0000000000000000    6.4550760260822955
 Er  Sn 
  10   6
Cartesian
  3.3678613138606956  5.8332990614477351  4.8413100000000000
  1.0481986861393044  1.8155309385522658  1.6137699999999999
  6.7357226277213913  0.0000000000000001  1.6137699999999999
  3.3678613138606961 -5.8332990614477351  4.8413100000000000
  2.0963973722786089 -0.0000000000000001  4.8413100000000000
  1.0481986861393042 -1.8155309385522658  1.6137699999999999
  4.4160599999999999  2.5496150992199507  3.2275399999999999
  4.4160599999999999 -2.5496150992199507  0.0000000000000000
  4.4160599999999999 -2.5496150992199507  3.2275399999999999
  4.4160599999999999  2.5496150992199507  0.0000000000000000
  1.7427564978320658 -3.0185387389015559  4.8413100000000000
  3.4855129956641311 -0.0000000000000000  1.6137699999999999
  2.6733035021679341  4.6302912610984448  1.6137699999999999
  1.7427564978320658  3.0185387389015559  4.8413100000000000
  5.3466070043358682 -0.0000000000000004  4.8413100000000000
  2.6733035021679341 -4.6302912610984448  1.6137699999999999
