Yb Cd In 
 1.0000000000000000
     0.0000000000000000    3.7581577102189412    3.7581577102189412
     3.7581577102189412    0.0000000000000000    3.7581577102189412
     3.7581577102189412    3.7581577102189412    0.0000000000000000
 Yb  Cd  In 
   2   1   1
Cartesian
  0.0000000000000000  0.0000000000000000  0.0000000000000000
  3.7581675163199812  3.7581675163199812  3.7581675163199812
  1.8790875163199812  1.8790875163199812  1.8790875163199812
  5.6372400000000003  5.6372400000000003  5.6372400000000003
