Te Mo  W  S 
 1.0000000000000000
     3.3068385407590535    0.0000019467388598    0.0000002602542027
    -1.6534177921569237    2.8609175401666138   -0.1290808382217584
     0.0000034133695619   -1.0300483576494828   19.8328236125380037
 Te  Mo  W   S  
   2   2   1   4
Cartesian
  1.6534216532912631 -0.8141266366676013 18.2041179047334971
  1.6534216531098100  0.3893476425975398  2.2086649763518018
  0.0000000014590560  1.2562139203745046  0.2456158791174420
  1.6534183469685357  0.6083463772857656  7.0362691407418234
  0.0000016528552603  1.8312792111958722 13.1470991303256532
 -0.0000000000816064  1.6310027874220205  8.5208893835332820
  1.6534216530435735  0.8082502569835701 11.6539405883504070
  1.6534216518142122  0.9469753664636048 14.7269263092549867
  0.0000000012199261  1.4929182763447411  5.4646908403910510
