Li Tm Au 
 1.0000000000000000
     0.0000000000000000    3.5266717926013489    3.5266717926013489
     3.5266717926013489   -0.0000000000000000    3.5266717926013489
     3.5266717926013489    3.5266717926013489    0.0000000000000000
 Li  Tm  Au 
   1   2   1
Cartesian
  5.2900050000000007  5.2900050000000007  5.2900050000000007
  0.0000000000000000  0.0000000000000000  0.0000000000000000
  3.5266700000000002  3.5266700000000002  3.5266700000000002
  1.7633350000000001  1.7633350000000001  1.7633350000000001
