Sr La Nd Cu  O 
 1.0000000000000000
     3.7844374988336402   -0.0062965592391300   -9.5560617136136301
    -0.1436269056439512    3.7817162957064383   -9.5560617136136301
     0.0060720611740244    0.0062965592443424   10.2781440828103818
 Sr  La  Nd  Cu  O  
   1   1   1   2   6
Cartesian
  2.9899963975684773  3.1005441644326348 -15.6957297826298117
  0.6608905100947300  0.6853253121206121 -3.4692880803424835
  3.6379787129125747  3.7724840330323177 -19.0972574011361971
  1.4932720552666388  1.5484821187853179 -7.8388036488865458
  2.1386586949502324  2.2177303429975765 -11.2267054905178387
  1.0713650014471465  1.1109760887724396 -5.6240387362861606
  2.5432179434724054  2.6372471752562174 -13.3504045862865226
  3.4360008656922338  1.5977111566524387 -7.7269733471985171
  1.4719658656922316  3.4917211566524404 -7.7269733471985189
  0.2248094764516776  2.1984542256490154 -1.1801327897587697
  2.1888444764516772  0.3044442256490156 -1.1801327897587697
