Rb Ag Mo Br 
 1.0000000000000000
     6.6076782616350656    0.0000000053480331    3.8149451625185895
     2.2025590973007541    6.2297788745482521    3.8149451625185895
    -0.0000000000000000   -0.0000000000000000    7.6298903250371790
 Rb  Ag  Mo  Br 
   2   1   1   6
Cartesian
  6.6076800000000002  4.6723350000000003 11.4448425000000000
  2.2025600000000001  1.5574450000000000  3.8149474999999997
  4.4051200000000001  3.1148899999999999  7.6298949999999994
  0.0000000000000000  0.0000000000000000  0.0000000000000000
  5.5451890134318083  1.5025890550774543  5.6552379725198776
  2.1249819731363901  1.5025890550774588  7.6298924119456135
  3.2650509865681920  4.7271909449225449  9.6045520274801213
  3.2650509865681920  4.7271909449225449  5.6552379725198767
  5.5451890134318083  1.5025890550774543  9.6045520274801230
  6.6852580268636093  4.7271909449225413  7.6298975880543853
