Sr Mg 
 1.0000000000000000
     6.8073239276255677    0.1744018590080462   -1.6568739991320121
    -4.1715915716392491    5.3821834624506604   -1.6568739991320123
    -0.0827264580960016   -0.1744018590159531    7.0055725560707680
 Sr  Mg 
   4   2
Cartesian
  1.0100911508839727  4.5191651097376209  1.0174799999999995
  1.5429088491160279  0.8630148902623784  2.6743500000000000
 -1.7177955888750243  3.4669048902623700  4.4470853089211069
  4.2707955888750249  1.9152751097376295 -0.7552553089211055
  0.6589324999999999  1.3891450000000001 -0.8284350000000000
  1.9767974999999995  4.1674350000000002 -2.4853050000000003
