 Y Fe  B 
 1.0000000000000000
     7.3096137774529755   -2.6486565561138553   -0.0846022837944724
     7.3096137774529755    2.6486565561138553   -0.0846022837944724
     6.4019148187090513   -0.0000000000000000    4.4123098774057965
 Y   Fe  B  
   4   3   6
Cartesian
 15.6046317671943608  0.0000000000000001  3.1497911433740864
  5.4164982328056412  0.0000000000000000  1.0933188566259140
 12.4112133199246912 -0.0000000000000000  2.5052004031159867
  8.6099166800753135  0.0000000000000000  1.7379095968840128
  0.0000000000000000  0.0000000000000000  0.0000000000000000
 18.7375075627412855  0.0000000000000001  3.7821613640541485
  2.2836224372587139  0.0000000000000000  0.4609486359458514
 10.5105650000000015 -1.7622834043529478  2.1215549999999999
 10.2085963354378180  0.8811417021764735  3.6175623893859852
 10.8125336645621832  0.8811417021764729  0.6255476106140148
 10.5105649999999997  1.7622834043529476  2.1215549999999999
 10.8125336645621832 -0.8811417021764728  0.6255476106140148
 10.2085963354378180 -0.8811417021764735  3.6175623893859852
