Ca  P Se  O 
 1.0000000000000000
     4.7636386730333680   -8.2508639957247922    0.0000000000000000
     4.7636386436450353    8.2508640126921513   -0.0000000000000000
    -0.0000000000000000   -0.0000000000000000    6.8535851967524870
 Ca  P   Se  O  
  10   6   1  24
Cartesian
  2.4308376471081359  0.1180237845955688  5.1492078430473711
  5.8768519108505455 -6.0866908644213362  1.7043821569526298
  1.3176257362575925 -2.0461618527030554  1.7043821569526298
  7.0964423528918648 -0.1180237845955728  1.7043821569526298
  3.6504280891494560  6.0866908644213353  5.1492078430473711
  4.7636399999999997 -2.7502921672399467  3.5065791167161944
  4.7636399999999997  2.7502921672399472  3.3470108832838092
  4.7636399999999997 -2.7502921672399467  0.1365880269968338
  4.7636399999999997  2.7502921672399472  6.7170019730031667
  8.2096542637424061  2.0461618527030607  5.1492078430473711
  7.4889678775832822  3.0641732252043234  1.7080677749636033
  5.8544699907465336 -0.2331420736924762  5.1455222250363954
  6.3981378868367464 -4.9535447011030858  5.1455222250363954
  3.6728100092534648  0.2331420736924708  1.7080677749636033
  3.1291421131632542  4.9535447011030902  1.7080677749636033
  2.0383121224167176 -3.0641732252043234  5.1455222250363954
  0.0000000000000000  0.0000000000000000  3.4267949999999998
  6.9521703949951199 -0.5760877622483680  6.1905960157227673
  3.2512501438238197  0.8154315084452836  3.0752342837469482
  2.3318100303689309 -2.4079472431566029  3.7783557162530532
  5.6830801134548885 -5.0274812483981162  3.7783557162530532
  6.2760298561761818 -0.8154315084452822  3.7783557162530532
  7.7408134033619547  1.9420564441835746  0.6629939842772342
  3.9749969916331649  5.7326992918479904  0.6629939842772342
  2.5751096050048803  0.5760877622483603  0.6629939842772342
  1.7864665966380426 -1.9420564441835759  6.1905960157227673
  5.5522830083668353 -5.7326992918479878  6.1905960157227673
  6.1995497946528104  3.8671126700903180  1.3509765336748643
  3.8507354692975588 -1.3066302444726730  1.7456654449883298
  5.0128855562534405  0.9483402862457397  1.3509765336748643
  3.3277302053471889 -3.8671126700903149  5.5026134663251334
  6.4487953509062530 -3.4354070436639406  5.5026134663251334
  4.5143944437465562 -0.9483402862457438  5.5026134663251334
  3.9698481430983814 -4.2627127688922730  1.7456654449883298
  6.4703363876040587 -2.6815169866351680  1.7456654449883298
  3.8441998865451117  5.0274812483981135  3.0752342837469482
  5.5574318569016201  4.2627127688922704  5.1079245550116665
  3.0569436123959401  2.6815169866351742  5.1079245550116665
  5.6765445307024365  1.3066302444726787  5.1079245550116665
  3.0784846490937436  3.4354070436639357  1.3509765336748643
  7.1954699696310698  2.4079472431566038  3.0752342837469482
