Ba Te  O 
 1.0000000000000000
     5.1236340371714055   -0.0000000000000000    0.0000000000000000
    -0.0000000000000000    5.9977945242063209    0.0000000000000000
     0.0000000000000000    0.0000000000000000   13.7669022065432625
 Ba  Te  O  
   4   4  16
Cartesian
  1.2809075000000001  0.0000000000000000  2.2407554901984619
  3.8427225000000003  0.0000000000000000 11.5261445098015400
  1.2809075000000001  2.9988950000000001  9.1242054901984595
  3.8427225000000003  2.9988950000000001  4.6426945098015340
  1.2809075000000001  0.0000000000000000  5.9468476266841028
  3.8427225000000003  0.0000000000000000  7.8200523733158942
  3.8427225000000003  2.9988950000000001  0.9366023733158971
  1.2809075000000001  2.9988950000000001 12.8302976266841053
  0.3732629877942573  4.9364430612202321  7.4373702107975728
  2.9350779877942572  4.9364430612202321  6.3295297892024216
  2.9350779877942572  4.0602419387797681 13.2129797892024268
  0.3732629877942573  4.0602419387797681  0.5539202107975780
  0.7572354168189561  4.2591429018156015 11.5397123506971138
  3.3190504168189552  4.2591429018156015  2.2271876493028846
  1.8045795831810441  1.7386470981843998 11.5397123506971138
  2.1885520122057418  1.0613469387797698  7.4373702107975728
  4.7503670122057429  1.9375480612202296 13.2129797892024268
  2.1885520122057418  1.9375480612202296  0.5539202107975780
  0.7572354168189561  4.7375420981843988  4.6562623506971139
  4.7503670122057429  1.0613469387797698  6.3295297892024216
  4.3663945831810453  1.2602479018156003  9.1106376493028858
  1.8045795831810441  1.2602479018156003  4.6562623506971139
  4.3663945831810453  1.7386470981843998  2.2271876493028846
  3.3190504168189552  4.7375420981843988  9.1106376493028858
