 K Ti 
 1.0000000000000000
     5.8461133666654295    0.0000000000000000    0.0000000000000000
    -0.0000000000000000    5.8461133666654295   -0.0000000000000000
     0.0000000000000000   -0.0000000000000000    5.8461133666654295
 K   Ti 
   3   1
Cartesian
  0.0000000000000000  2.9230550000000002  2.9230550000000002
  2.9230550000000002  0.0000000000000000  2.9230550000000002
  2.9230550000000002  2.9230550000000002  0.0000000000000000
  0.0000000000000000  0.0000000000000000  0.0000000000000000
