 P Cl 
 1.0000000000000000
     8.9827139153349691    0.0000000196614431   -0.0000000000000000
    -0.0000000196614431    8.9827139153349691    0.0000000000000000
    -0.0000000000000000    0.0000000000000000    7.6346848178083606
 P   Cl 
   4  20
Cartesian
  4.4913550000000004  4.4913550000000004  0.0000000000000000
  0.0000000000000000  0.0000000000000000  0.0000000000000000
  4.4913550000000004  0.0000000000000000  4.6863924721121553
  0.0000000000000000  4.4913550000000004  2.9482875278878424
  8.2734323192607917  6.5413607516162857  2.9881630494531222
  6.9327042483837156  3.7820773192607895  2.9881630494531222
  2.4413492483837196  8.2734323192607917  4.6465169505468822
  3.7820773192607895  2.0500057516162777  4.6465169505468822
  5.2006326807392096  6.9327042483837156  4.6465169505468822
  6.5413607516162857  0.7092776807392102  4.6465169505468822
  0.0000000000000000  4.4913550000000004  5.1788121430120970
  4.4913550000000004  0.0000000000000000  2.4558678569879033
  0.0000000000000000  4.4913550000000004  0.7915525467250932
  2.9504388008735378  4.9505694704930070  6.5079534442672884
  0.7092776807392102  2.4413492483837196  2.9881630494531222
  0.4592144704930083  1.5409161991264635  6.5079534442672884
  8.5234955295069934  7.4417938008735343  6.5079534442672884
  6.0322711991264670  4.0321405295069894  6.5079534442672884
  1.5409161991264635  8.5234955295069934  1.1267265557327182
  4.0321405295069894  2.9504388008735378  1.1267265557327182
  4.9505694704930070  6.0322711991264670  1.1267265557327182
  7.4417938008735343  0.4592144704930083  1.1267265557327182
  4.4913550000000004  0.0000000000000000  6.8431274532749073
  2.0500057516162777  5.2006326807392096  2.9881630494531222
