Mo  O 
 1.0000000000000000
     5.3032059325378400   -0.0979056092353723   -0.0188186979749315
     0.1012958328902067    5.3822090420694186   -0.0208755241051131
     0.0913854463665410    0.0282471105526751    7.5536588838618428
 Mo  O  
   4  12
Cartesian
  2.5968308222193959  0.0081986532447706  7.3543368181217739
  5.2156359649231216  2.5738619670008838  7.4551011760982382
  5.2526713005889460  2.5813498528917473  3.5578745775261642
  2.4695908451882334  0.0201378607966085  3.6976891923402482
  1.6671855944703593  1.5575301475674401  4.0991241213559961
  4.3115695038745567  1.0825501539531168  3.5129873897178721
  1.3565113407137113  4.2512007058543206  7.2967169131714398
  3.8938298999588716  3.7552497699455576  0.3019561044166735
  3.9550668451752955  3.7705542095972602  3.5106430112438254
  1.2958890977616158  4.2429502107701689  4.0846338453380620
  4.2646371595497596  1.0427046533866928  0.3128262591933941
  1.7131372372227869  1.5415001627074110  7.2961330238612723
  5.0935991065986670  2.5636712085986528  5.6968637547961292
  2.3481708172890041  0.0240243007767938  1.9393836647949090
  0.5404708894579147  2.7485681959694146  1.8968013176913638
  3.2857241183877877  5.2844612956691277  5.6542986030525988
