Al Ag  O 
 1.0000000000000000
    -1.4417072757720111    2.4971086767221831   -0.0000000008105104
    -2.8834125715973995   -0.0000000057869081   -0.0000000016210198
    -1.4417072756873961    0.8323695569784237    6.0977287692586568
 Al  Ag  O  
   1   1   2
Cartesian
 -1.4417099804803197  0.8323700000000062  6.0620229951162505
 -4.3251216116737439  2.4971099999999944  2.9482679898463751
 -4.3251227983996134  2.4971100000000064  5.1191637107192935
 -1.4417086411563296  0.8323708323699981  0.9746286120480919
