Tb Lu In 
 1.0000000000000000
     4.5506306690615625   -0.0000000019355101    2.6273077633490343
     1.5168772193708879    4.2903752714679229    2.6273077633490343
    -0.0000000000000000    0.0000000000000000    5.2546155266980685
 Tb  Lu  In 
   1   1   2
Cartesian
  0.0000000000000000  0.0000000000000000  0.0000000000000000
  3.0337550000000002  2.1451899999999999  5.2546200000000001
  1.5168775000000001  1.0725950000000000  2.6273100000000000
  4.5506324999999999  3.2177850000000001  7.8819300000000005
