Na Tl Ga  F 
 1.0000000000000000
     5.4632153913571404   -0.0000000016083680    3.1541894395331722
     1.8210717956026634    5.1507695597664434    3.1541894395331713
    -0.0000000045491504   -0.0000000032167355    6.3083778948463411
 Na  Tl  Ga  F  
   2   1   1   6
Cartesian
  5.4632174999999998  3.8630774999999997  9.4625699999999995
  1.8210724999999999  1.2876924999999999  3.1541899999999998
  3.6421449999999997  2.5753849999999998  6.3083799999999997
  0.0000000000000000  0.0000000000000000  0.0000000000000000
  4.6824585416763762  1.1041617442150473  4.5065066175092090
  1.5615207729647642  1.1041617442149092  6.3083800000003389
  2.6018314583236237  4.0466082557849514  8.1102533824907912
  2.6018314583240154  4.0466082557852294  4.5065066175092099
  4.6824585416759845  1.1041617442147706  8.1102533824907894
  5.7227692270352355  4.0466082557850909  6.3083799999996604
