Ba Na Si  O 
 1.0000000000000000
     0.0000000000000000    5.7353035181701646    0.0079878560966102
     4.7978189204618440    0.0000000000000000    0.0000000000000000
     0.0000000000000000   -0.3046329610398593  -11.4643338546378004
 Ba  Na  Si  O  
   2   4   4  12
Cartesian
  3.5613692601152249  1.4150617167357002 -1.1079247622854094
  1.1624592601152275  4.0156082832643021 -10.3484152377145904
  3.6271832341764183  0.8921540126479620 -5.5619247637231872
  3.6158515449261488  3.8376819765507211 -7.7779348780991597
  1.2282732341764193  4.5385159873520360 -5.8944152362768110
  1.2169415449261498  1.5929880234492786 -3.6784051219008429
  3.8560675333952097  1.0293221326092645 -9.2241733153092689
  1.4221889307008480  1.6563839655946124 -7.4691729201525874
  1.4571575333952136  4.4013478673907320 -2.2321666846907338
  3.8210989307008481  3.7742860344053870 -3.9871670798474064
  0.6250460596266544  0.7818346939781853 -8.6673131744999115
  1.1244463105811180  1.1280826323208883 -5.9737967509850263
  1.2043550255745510  3.2405684809467696 -7.7620390668852135
  1.0833403933176455  0.0354047621205965 -1.4584814734673404
  3.0239560596266535  4.6488353060218124 -2.7890268255000952
  3.6032650255745491  2.1901015190532278 -3.6943009331147887
  3.7094500914462887  2.3697901849030538 -10.1231664182969503
  3.5233563105811161  4.3025873676791129 -5.4825432490149719
  0.6347857961398038  4.1807190947708390 -3.6785884632137287
  3.0336957961398014  1.2499509052291602 -7.7777515367862611
  3.4822503933176479  5.3952652378794044 -9.9978585265326654
  1.3105400914462855  3.0608798150969436 -1.3331735817030503
