 K Bi  S 
 1.0000000000000000
     3.9743908608586889   -0.0103963278098635    6.6438325629415811
     1.8276041134077212    3.5292710299953116    6.6438325629415802
    -0.0171416825996377   -0.0103963263533134    7.7418346811959777
 K   Bi  S  
   1   1   2
Cartesian
  2.8924249999999998  1.7542349999999998 10.5147450000000013
  0.0000000000000000  0.0000000000000000  0.0000000000000000
  1.5114589370936169  0.9166889957431640  5.4945608966317439
  4.2733910629063825  2.5917810042568359 15.5349291033682579
