As  N 
 1.0000000000000000
     2.9796214195920223    0.0878968661746194   -0.0067958315183285
    -1.1527950932850486   -3.1525222831737092    0.0235853578283202
     0.3119573015914927   -1.9459976389376799   -6.0516527972054632
 As  N  
   1   3
Cartesian
  0.7550811043668618  0.0584623131334738 -0.3337359170131360
 -0.7259380607948005 -3.4810398982664013 -4.0829255138578970
  1.7083392734507035 -3.8678252975148260 -3.2413722175507456
  1.0490191235936785 -2.1723616972685278 -1.0845236975588726
