Sm Cu  O 
 1.0000000000000000
     2.7603293360980135    1.5936778551088151    4.2392248450604137
    -2.7603293360980135    1.5936778551088151    4.2392248450604137
     0.0000000000000000   -3.1873537295603294    4.2392248509899497
 Sm  Cu  O  
   2   2   6
Cartesian
  0.0000000000000000  0.0000025000000000  3.1794150000000005
  0.0000000000000001  0.0000075000000000  9.5382450000000016
  0.0000000000000000  0.0000000000000000  0.0000000000000000
  0.0000000000000000  0.0000050000000000  6.3588300000000011
 -1.5948393714315559  0.4250157220291529  5.2990250000007322
 -1.1654906285684445 -1.1686592779708465  7.4186350000007337
 -0.4293487428631109  1.5936824999999999  7.4186350000000010
  0.4293487428631119 -1.5936724999999998  5.2990250000000012
  1.1654906285684439  1.1686692779708476  5.2990249999992685
  1.5948393714315556 -0.4250057220291534  7.4186349999992673
