Er Mg Tl 
 1.0000000000000000
     0.0000000000000000    3.7205524634128451    3.7205524634128451
     3.7205524634128451   -0.0000000000000000    3.7205524634128451
     3.7205524634128451    3.7205524634128451   -0.0000000000000000
 Er  Mg  Tl 
   2   1   1
Cartesian
  0.0000000000000000  0.0000000000000000  0.0000000000000000
  3.7205499999999998  3.7205499999999998  3.7205499999999998
  1.8602675589000184  1.8602675589000184  1.8602675589000184
  5.5808249999999999  5.5808249999999999  5.5808249999999999
