Be Nb Ga 
 1.0000000000000000
    -0.0000000000000000    3.6216867964710908    3.6216867964710908
     3.6216867964710908    0.0000000000000000    3.6216867964710908
     3.6216867964710908    3.6216867964710908    0.0000000000000000
 Be  Nb  Ga 
   1   1   4
Cartesian
  0.0000000000000000  0.0000000000000000  0.0000000000000000
  1.8108450000000000  1.8108450000000000  1.8108450000000000
  4.5288865691332427  2.7144898091767407  2.7144898091767407
  4.5288865691332427  4.5288865691332427  4.5288865691332427
  2.7144898091767407  4.5288865691332427  2.7144898091767407
  2.7144898091767407  2.7144898091767407  4.5288865691332427
