Sr Co Br  O 
 1.0000000000000000
     3.8249993187752200   -0.0000000013343494   -0.8744169210045908
    -0.1998967520330126    3.8197732167429508   -0.8744168939404167
     0.1534101874745032    0.1616481324621830    9.4742077103971365
 Sr  Co  Br  O  
   2   1   2   2
Cartesian
  1.5869923183826335  1.6722161855997271  6.9420540955364736
  2.1915139031073747  2.3091998329802816  0.7833081790935426
  0.0000000000000000  0.0000000000000000  0.0000000000000000
  0.7018613329852901  0.7395523390223594  3.0701845779113932
  3.0766486670147097  3.2418676609776407  4.6551854220886053
 -0.0999498465900004  1.9098851616499997 -0.4372005257900237
  1.9125001534099997  0.0000001616499996 -0.4372005257900237
