Ba Li  W 
 1.0000000000000000
    -0.0000000000000000    4.8871252730754824    4.8871252730754824
     4.8871252730754824    0.0000000000000000    4.8871252730754824
     4.8871252730754824    4.8871252730754824    0.0000000000000000
 Ba  Li  W  
   4   1   1
Cartesian
  6.1216001408797087  3.6526647462502790  3.6526647462502790
  6.1216001408797087  6.1216001408797087  6.1216001408797087
  3.6526647462502790  6.1216001408797087  3.6526647462502790
  3.6526647462502790  3.6526647462502790  6.1216001408797087
  2.4435650000000000  2.4435650000000000  2.4435650000000000
  0.0000000000000000  0.0000000000000000  0.0000000000000000
