Na Al As 
 1.0000000000000000
     0.0000000000000000   13.1824929416043179   -0.0147708568520806
     6.7656342438699335    0.0000000000000000    0.0000000000000000
     0.0000000000000000   -0.0677496111700384  -14.4587917126194672
 Na  Al  As 
  16  16  24
Cartesian
  0.3775738070135247 11.3080203265171768 -14.3024607107261819
  2.6683665660883569  7.4479727682756662 -6.0596060587487415
  6.0511815660883581  5.7006422317243368 -1.1845589412512600
  4.0972634339116416  5.6667672317243367 -8.4139539412512594
  0.7144484339116425  7.4140977682756661 -13.2890010587487417
  3.7328233089654974 11.9884935430245250 -12.9436930826875969
  6.4156216910345023 12.0223685430245251 -5.7142980826875940
  3.0328066910345051  1.1262464569754753 -1.5298669173124029
  0.3500083089654963  1.0923714569754752 -8.7592619173124042
  3.9769503272190936  8.5176380739382829 -14.1689939400147473
  6.1714946727809057  8.5515130739382830 -6.9395989400147444
  2.7886796727809080  4.5971019260617245 -0.3045660599852555
  3.0052411929864760 11.3418953265171769 -7.0730657107261843
  6.3880561929864736  1.8067196734828208 -0.1710992892738131
  3.7603888070135256  1.7728446734828207 -7.4004942892738184
  0.5941353272190930  4.5632269260617244 -7.5339610599852547
  5.0015401754673006 10.6519868520117598 -9.7120718478308010
  1.7717901014237818  5.4123342294381418 -3.7546612111345130
  5.1546051014237824  7.7362807705618613 -3.4895037888654916
  4.9938398985762174  7.7024057705618612 -10.7188987888654950
  1.6110248985762179  5.3784592294381417 -10.9840562111345061
  5.1469048245326992 10.6858618520117599 -2.4826768478308034
  1.6187251754673009  2.4288781479882440 -11.9908831521692001
  1.7640898245326990  2.4627531479882441 -4.7614881521691927
  5.3594801922746500  1.2106132217045817 -3.9036267116044732
  4.7889648077253497  1.1767382217045819 -11.1330217116044690
  1.4061498077253516 11.9041267782955131 -10.5699332883955321
  5.3026480514806638  4.1481079770294906 -4.8694528793304812
  1.9198330514806623  9.0005070229705080 -2.3747121206695208
  1.4629819485193369  8.9666320229705079 -9.6041071206695214
  4.8457969485193360  4.1142329770294905 -12.0988478793304779
  1.9766651922746490 11.9380017782955132 -3.3405382883955301
  4.4759345851124364  9.8253595310113617 -4.7759225318250449
  5.6725104148875634  9.7914845310113616 -12.0053175318250371
  2.2896954148875595  3.2893804689886434 -9.6976374681749640
  3.5982431595500990  6.2679031440998578 -12.2171816950346166
  6.5502018404499012  6.3017781440998579 -4.9877866950346110
  3.1673868404499004  6.8468368559001407 -2.2563783049653892
  1.0931195851124405  3.3232554689886435 -2.4682424681749566
  5.2989279685696786  3.2981984648112128 -2.5300941603572853
  1.9161129685696767  9.8504165351887867 -4.7140708396427167
  0.2154281595500993  6.8129618559001406 -9.4857733049653845
  3.0219666494138875  4.4559468117578875 -5.7474426634113334
  6.4276796717681695  2.0910597208253345 -6.0008784763045240
  3.7436633505861128  8.6587931882421127 -8.7261173365886666
  0.3608483505861135  4.4220718117578874 -12.9768376634113345
  3.0448646717681696 11.0575552791746681 -1.2432865236954744
  0.3379503282318307 11.0236802791746680 -8.4726815236954760
  3.7207653282318307  2.0571847208253344 -13.2302734763045251
  3.1613017475819611  0.4085329110474357 -4.7512172027076183
  6.5441167475819624 12.7400820889525619 -2.4929477972923824
  3.6043282524180373 12.7062070889525618 -9.7223427972923844
  0.2215132524180394  0.3746579110474357 -11.9806122027076167
  1.4667020314303247  9.8165415351887866 -11.9434658396427160
  6.4047816494138869  8.6926681882421128 -1.4967223365886637
  4.8495170314303211  3.2643234648112127 -9.7594891603572851
