Mg Zr 
 1.0000000000000000
     4.4291313931313292   -0.0000000000000000   -0.0000000000000000
     0.0000000000000000    4.4291313931313292   -0.0000000000000000
    -0.0000000000000000   -0.0000000000000000    9.1137845378198268
 Mg  Zr 
   2   6
Cartesian
  0.0000000000000000  0.0000000000000000  0.0000000000000000
  2.2145649999999999  2.2145649999999999  4.5568900000000001
  2.2145649999999999  2.2145649999999999  0.0000000000000000
  2.2145649999999999  0.0000000000000000  2.2784450000000001
  0.0000000000000000  2.2145649999999999  2.2784450000000001
  0.0000000000000000  0.0000000000000000  4.5568900000000001
  0.0000000000000000  2.2145649999999999  6.8353350000000006
  2.2145649999999999  0.0000000000000000  6.8353350000000006
