Zr Ti Zn 
 1.0000000000000000
     4.9643604652539821    0.0028730025004112    7.4710131535450222
     2.2580015744558342    4.4211211217150641    7.4710131535450222
     0.0046902940694297    0.0028729982365761    8.9699986928275823
 Zr  Ti  Zn 
   3   1   8
Cartesian
  4.5106492545550738  2.7629548375920567 14.9243100833534097
  0.0183742186486581  0.0112549509920367  0.0607944713022933
  3.5993042784407510  2.2047192337202901 11.9089581353605851
  0.9091022494854768  0.5568618432357985  3.0079314757398992
  2.9388357272998480  0.2803978174642094  9.7236753381068741
  1.5774308987727659  2.4831949933573259  5.2192208460886693
  1.5849823887946466  2.4906220717580232  9.7236753381068741
  2.9287873215892417  0.2770470621475477  5.2192208460886693
  5.8712124463739963  3.5963547409185197 19.4259828618790671
  2.2579309358378223  1.3830738880487921  7.4707784914140847
  4.0660513476117730  2.4906220717580747  8.9738073915340433
  0.4522942055399143  0.2770470621473061  5.9677058090054178
