Os  I 
 1.0000000000000000
     3.8958654761678995   -0.1910723900197311   -0.0001519201744101
    -1.7338504025279093    3.4940003280778567   -0.0001519177389164
     0.0005992477559441    0.0009154767453883   10.2622982793886628
 Os  I  
   1   3
Cartesian
  0.5404143048211535  0.8255943664831011  1.2826385899115507
  0.5413236379580315  0.8269852487029025  6.4139825756592517
  1.6215214860221900  2.4772084216983812  3.0786749130131410
  1.6219805711986264  2.4779119631156119  9.7487039214160500
