Ta Ag  O 
 1.0000000000000000
     4.8968448280566639   -2.7730769889294877    0.0134584481857459
     4.8968448280566639    2.7730769889294877    0.0134584481857459
     3.3139914444727125   -0.0000000000000000    4.5482619859001971
 Ta  Ag  O  
   2   2   6
Cartesian
  0.0058308638872053  0.0000000000000000  0.0020352398129846
  6.5596658638872043 -0.0000000000000001  2.2896252398129842
  3.2831501768672924 -0.0000000000000000  1.1459704910330897
  9.8369851768672909 -0.0000000000000000  3.4335604910330888
  8.1793404587047416 -0.3474121228080545  1.1592299112757400
  7.4870775997480337  1.5602246375224424  3.1425344649585787
  7.2887777747928464 -1.2128125147143880  3.7106552889196491
  5.6317827747928479 -1.5602674852856118  1.4365252889196491
  4.9394954587047426  0.3474121228080543  3.4198999112757398
  5.8300825997480334  1.2128553624775575  0.8684044649585791
