Li Ti Mn  F 
 1.0000000000000000
     8.7620140172764938    0.0000000099261390   -0.0000000000000000
    -4.3810074913803003    7.5881271070738423    0.0000000000000000
    -0.0000000000000000    0.0000000000000000    4.7136862389023744
 Li  Ti  Mn  F  
   3   3   3  18
Cartesian
  0.0000000000000000  0.0000000000000000  0.0000000000000000
 -0.0000077143399576  5.0587558627099751  2.3433392553746355
  4.3810077143399582  2.5293741372900240  2.3703507446253642
 -1.3644221680156210  2.3632479236028199  2.3568449999999999
  3.0165809463841722  5.2248820763965123  2.3568449999999999
  2.7288412216314506  0.0000000000006655  2.3568449999999999
  5.6333244768777524  0.0000000000034974  0.0000000000000000
  1.5643409761883456  2.7095235543667928  0.0000000000000000
 -2.8166654530660948  4.8786064456297087  0.0000000000000000
  4.3833594876352224  5.9165432868350685  1.1197640363342469
  1.4464555249777060  0.8378357807495864  1.1197640363342469
  5.8568219023559536  1.6569557946598235  3.4281523503099121
  4.3986355533492167  4.2436765260756832  3.4281523503099121
  2.8875656873148925  1.6874900911344601  3.4281523503099121
 -1.4934508508389586  5.9006399088647381  1.2855376496900870
  4.1847939415136244  0.8438428056505988  1.2723362459617724
  5.9388263659801765  3.2022125782424298  1.2723362459617724
 -1.3616112585843165  4.0460629720105183  3.4413490403482410
 -0.1962237084264269  6.7442871943508456  3.4413490403482410
  3.0194028355262543  3.5420670279769375  1.2723362459617724
  2.9321860861417730  6.7543790675899027  3.5939259636657503
  1.4758053239614746  5.9311742053415992  1.2855376496900870
  0.0023572847349387  1.6715867131605073  3.5939259636657503
  7.3131949873870710  0.8337509324153469  1.1197640363342469
 -2.9345533708767135  6.7502942192495885  3.5939259636657503
  0.0176223838574250  3.3444534739236969  1.2855376496900870
  1.5578118239906833  4.3859174217686681  3.4413490403482410
