Tb Ir 
 1.0000000000000000
     6.3549308473228319   -0.0000000000000000    0.0000000000000004
     0.0000000000000012    7.1972065165527646    0.0000000000000004
    -0.0000000000000000   -0.0000000000000000    9.3202913631280868
 Tb  Ir 
  12   4
Cartesian
  2.0882342195225254  4.8840064584516591  0.5774004315736248
  1.0892307804774750  1.2854014584516622  4.0827445684263735
  4.2666957804774768  2.3132035415483378  5.2375454315736247
  5.2656992195225243  5.9118085415483401  8.7428895684263761
  4.2666957804774768  2.3132035415483378  8.7428895684263761
  5.2656992195225243  5.9118085415483401  5.2375454315736247
  2.0882342195225254  4.8840064584516600  4.0827445684263735
  1.0892307804774750  1.2854014584516622  0.5774004315736248
  5.5134242675125451  3.8312162991874916  2.3300725000000000
  4.0189707324874560  0.2326112991874913  2.3300725000000000
  0.8415057324874554  3.3659937008125094  6.9902175000000000
  2.3359592675125453  6.9645987008125081  6.9902175000000000
  0.3259587407546697  6.3564073426348973  2.3300725000000000
  2.8515062592453302  2.7578023426348963  2.3300725000000000
  6.0289712592453313  0.8408026573651033  6.9902175000000000
  3.5034237407546693  4.4394076573651029  6.9902175000000000
