Ca Be Bi 
 1.0000000000000000
    -2.3675234471777773    2.3675234471777773    4.7359425245758251
     2.3675234471777773   -2.3675234471777773    4.7359425245758251
     2.3675234471777773    2.3675234471777773   -4.7359425245758251
 Ca  Be  Bi 
   1   1   2
Cartesian
  2.3675199999999998  0.0000000000000000  2.3679700000000001
  0.0000000000000000  2.3675199999999998  2.3679700000000001
  0.0000000000000000  0.0000000000000000  0.0000000000000000
  0.0000000000000000  0.0000000000000000  4.7359400000000003
