 V Ag 
 1.0000000000000000
     3.8656516259243690    0.0000000000000000   -0.0000000000000000
    -0.0000000000000000    3.8656516259243690    0.0000000000000000
    -0.0000000000000000    0.0000000000000000    3.8656516259243690
 V   Ag 
   3   1
Cartesian
  0.0000000000000000  1.9328250000000000  1.9328250000000000
  1.9328250000000000  0.0000000000000000  1.9328250000000000
  1.9328250000000000  1.9328250000000000  0.0000000000000000
  0.0000000000000000  0.0000000000000000  0.0000000000000000
