Ba In Ni 
 1.0000000000000000
     0.0000000000000000    4.0505260138823838    4.0505260138823838
     4.0505260138823838   -0.0000000000000000    4.0505260138823838
     4.0505260138823838    4.0505260138823838   -0.0000000000000000
 Ba  In  Ni 
   2   1   1
Cartesian
  6.0757950000000003  6.0757950000000003  6.0757950000000003
  2.0252650000000001  2.0252650000000001  2.0252650000000001
  0.0000000000000000  0.0000000000000000  0.0000000000000000
  4.0505300000000002  4.0505300000000002  4.0505300000000002
