Nb Tl 
 1.0000000000000000
     5.3563195466237010    0.0000000000000000   -0.0000000000000000
    -0.0000000000000000    5.3563195466237010   -0.0000000000000000
     0.0000000000000000    0.0000000000000000    5.3563195466237010
 Nb  Tl 
   6   2
Cartesian
  2.6781600000000001  4.0172400000000001  0.0000000000000000
  0.0000000000000000  2.6781600000000001  4.0172400000000001
  2.6781600000000001  1.3390800000000000  0.0000000000000000
  0.0000000000000000  2.6781600000000001  1.3390800000000000
  1.3390800000000000  0.0000000000000000  2.6781600000000001
  4.0172400000000001  0.0000000000000000  2.6781600000000001
  2.6781600000000001  2.6781600000000001  2.6781600000000001
  0.0000000000000000  0.0000000000000000  0.0000000000000000
