Sr Be Bi 
 1.0000000000000000
    -2.3594309469964996    2.3594309469964996    5.7250094297993197
     2.3594309469964996   -2.3594309469964996    5.7250094297993197
     2.3594309469964996    2.3594309469964996   -5.7250094297993197
 Sr  Be  Bi 
   2   1   1
Cartesian
  0.0000000000000000  0.0000000000000000  0.0000000000000000
  2.3594300000000001  0.0000000000000000  2.8625050000000001
  0.0000000000000000  0.0000000000000000  5.7250100000000002
 -0.0000000000000002  2.3594300000000006  2.8625050000000001
