Nd Au 
 1.0000000000000000
    -3.9052069040061084    0.0000000000000000    0.0000000000000000
     0.0000000000000000    0.0000000000000000   -4.7576460460226651
    -1.9526034520030542   -5.6368944267146963    0.0000000000000000
 Nd  Au 
   2   2
Cartesian
 -1.9526013668658573 -4.0959155032960259 -3.5682375000000000
 -3.9052086331341407 -1.5409744967039747 -1.1894125000000000
 -1.9526021605436374 -0.9998167209855854 -3.5682375000000000
 -3.9052078394563625 -4.6370732790144151 -1.1894125000000000
