Rb Ag Sb  S 
 1.0000000000000000
     0.0000000000000000    8.2059010875597540   -0.0784006623678442
    10.8599291069912081    0.0000000000000000    0.0000000000000000
     0.0000000000000000   -7.8389030733387379  -10.2942135972620878
 Rb  Ag  Sb  S  
   8   4   4  16
Cartesian
 10.7330622523185735 -4.8433100197903265 -7.5847632499546682
  7.9180460266792672 -2.5813986970503660 -10.2940725780934770
  8.3718489733207324  1.3380513029496341 -5.1469675780934763
  5.5568327476814270 -0.9238600197903276 -2.4376582499546706
  2.4880810266792639 -0.9710513029496329 -5.2256424219065227
  2.9418839733207345  2.9483986970503659 -0.0785374219065239
  0.1268677476814273  5.2103100197903238 -2.7878467500453268
  5.3030972523185742  1.2908600197903211 -7.9349517500453306
  0.3275977652260583  1.0872141424989228 -2.3799704138157414
 10.5323322347739428 -0.7202141424989270 -7.9926395861842652
  5.1023672347739399 -2.8322358575010718 -7.5270754138157336
  5.7575627652260577  3.1992358575010789 -2.8455345861842578
  8.4147525785555271  1.1736780481861693 -0.3970229372370228
  2.4451774214444724 -0.8066780481861683 -9.9755870627629761
  7.8751424214444734 -2.7457719518138308 -5.5441279372370227
  2.9847875785555247  3.1127719518138326 -4.8284820627629754
  8.8698534944292167 -0.3124013547457722 -2.2009996292093681
  0.7846059082230870  2.1628335588144796 -4.6299765021179216
  1.9900765055707932  0.6794013547457707 -8.1716103707906349
  2.4725971180443955 -0.0320635124805227 -1.6948922496548753
  8.3873328819556079  0.3990635124805232 -8.6777177503451259
  0.7303547898406587 -2.4354705685083404 -9.8345787444991188
  4.6453590917769105 -1.7566164411855256 -9.7770815021179285
  7.4200415055707838 -4.2318513547457695 -7.3481046292093648
  2.9573678819556055 -3.9515135124805210 -6.8419972496548729
  4.6996102101593396  1.4839794314916557 -4.6874737444991235
  6.2145709082230880  2.1236164411855221 -0.5955284978820758
 10.0753240917769116 -1.7958335588144743 -5.7426334978820712
  7.9025621180443935  4.3185135124805232 -3.5306127503451270
  3.4398884944292041  4.5988513547457721 -3.0245053707906324
  6.1603197898406608 -1.1169794314916612 -5.6851362555008809
 10.1295752101593397  2.8024705685083431 -0.5380312555008755
