Mg Al Sn 
 1.0000000000000000
     4.3762043283290346   -0.0000000027546806    0.0000000000000003
    -2.1881020507941047    3.7899041859387954    0.0000000000000003
    -0.0000000000000000   -0.0000000000000000    7.4660469469139770
 Mg  Al  Sn 
   1   2   2
Cartesian
  0.0000000000000000  0.0000000000000000  0.0000000000000000
  2.1880999999999844  1.2633000000000090  2.8952239791679530
  0.0000000000000155  2.5265999999999909  4.5708260208320457
  2.1880999999999844  1.2633000000000090  5.7566141227367709
  0.0000000000000155  2.5265999999999909  1.7094358772632292
