Nd Dy Tl 
 1.0000000000000000
     0.0000000000000000    3.8285382276801436    3.8285382276801436
     3.8285382276801436    0.0000000000000000    3.8285382276801436
     3.8285382276801436    3.8285382276801436   -0.0000000000000000
 Nd  Dy  Tl 
   1   1   2
Cartesian
  5.7428023429200188  5.7428023429200188  5.7428023429200188
  1.9142776570799807  1.9142776570799807  1.9142776570799807
  0.0000000000000000  0.0000000000000000  0.0000000000000000
  3.8285399999999998  3.8285399999999998  3.8285399999999998
