Mn 
 1.0000000000000000
     6.0112451589326277   -0.0000000000000000   -0.0000000000000000
    -0.0000000000000000    6.0112451589326277   -0.0000000000000000
    -0.0000000000000000   -0.0000000000000000    6.0112451589326277
 Mn 
  20
Cartesian
  0.3155790120132997  0.3155790120132997  0.3155790120132997
  3.3239778399591615  3.7570312500000003  1.8211653399591619
  5.6928971600408387  2.2542187500000002  4.8267903399591621
  1.8211653399591619  3.3239778399591615  3.7570312500000003
  2.6872721600408385  0.7514062500000001  1.1844596600408390
  0.3183528399591612  5.2598437499999999  4.1900846600408386
  4.8267903399591621  5.6928971600408387  2.2542187500000002
  1.1844596600408390  2.6872721600408385  0.7514062500000001
  5.2598437499999999  4.1900846600408386  0.3183528399591612
  2.2542187500000002  4.8267903399591621  5.6928971600408387
  0.7514062500000001  1.1844596600408390  2.6872721600408385
  4.1928584879867010  4.1928584879867010  4.1928584879867010
  5.6956709879867011  3.3212040120132991  2.6900459879867005
  3.3212040120132991  2.6900459879867005  5.6956709879867011
  2.6900459879867005  5.6956709879867011  3.3212040120132991
  1.1872334879866999  4.8240165120132996  1.8183915120132998
  4.8240165120132996  1.8183915120132998  1.1872334879866999
  1.8183915120132998  1.1872334879866999  4.8240165120132996
  4.1900846600408386  0.3183528399591612  5.2598437499999999
  3.7570312500000003  1.8211653399591619  3.3239778399591615
