Sc Bi 
 1.0000000000000000
     6.4689051593954803    0.0000000000000000   -0.0000000000000000
    -3.2344525796977401    5.6022364472128112   -0.0000000000000000
    -0.0000000000000000    0.0000000000000000    5.1683886637038619
 Sc  Bi 
   6   2
Cartesian
  0.0000016447420722  1.8428479394807067  1.2920974999999999
  1.6385059342588737  4.6808160302596269  1.2920974999999999
 -1.6384975790008764  4.6808160302596269  1.2920974999999999
  3.2344583552579271  3.7593920605192945  3.8762924999999999
  1.5959540657411260  0.9214239697403732  3.8762924999999999
  4.8729575790008770  0.9214239697403732  3.8762924999999999
  0.0000000988800314  3.7348285340799823  3.8762924999999999
  3.2344599011199691  1.8674114659200181  1.2920974999999999
