Mg Cr  S 
 1.0000000000000000
     5.8300491151218781   -0.1939322804170951    4.1107878863771354
     2.0268570661535561    5.4698201802313546    4.1107878881152775
    -0.2888039815636834   -0.1939322822667012    7.1277392472076224
 Mg  Cr  S  
   1   4   8
Cartesian
  3.7840573156599944  2.5409856637499861  7.6746569830500073
  4.7974885143899915  5.2758841423200158  9.7300621277399824
  6.6990738811500163  2.4440150000000003  9.7300580169499931
  3.9284550000000000  2.6379450000000002  4.1107899999999997
  0.0000000000000000  0.0000000000000000  0.0000000000000000
  4.7232530608902348  1.1122572357464955  9.5795024915214384
  1.6842055231515944  1.1309414659155232  7.2819566745094324
  2.8448534247197754  3.9697086219334903  5.7698103807385817
  4.7510703665807856  1.1309414659150752  5.7698133976880417
  1.9596659502601483  1.3159130969767343  3.9745114386083462
  5.6084460765998463  3.7660523728432538 11.3748126721816423
  2.8170416602792092  3.9510240039049114  9.5795107131019464
  5.8839065037084008  3.9510240039044633  8.0673674362805539
