Cd Si  O 
 1.0000000000000000
     5.6527428712483818   -0.0268281116464315   -1.3639868757703830
    -3.0223668750923460    4.7769781782073109   -1.3639868764353307
    -0.0132052416615829   -0.0238467525002459    6.7135236175407833
 Cd  Si  O  
   4   2   8
Cartesian
  3.9763258848155427  0.8781043596751298  3.6711499999993089
  0.8030066151844563  2.6353181403248707  3.6711500000006909
 -1.3591658848155426  3.8481956403248709  0.3143900000006918
  1.8141533848155427  2.0909818596751291  0.3143899999993084
 -1.9478887499999999  4.1586162500000006  3.6711499999999999
  4.5650487499999990  0.5676837500000000  0.3143899999999999
  0.7704954791564668  0.9677618626073733  5.4043017178706609
 -0.8278707238951686  4.0461626072161287  2.4556695115854157
  2.1991584208929136  3.5477634528297508  1.9379982821288404
 -1.2582368512641893  3.2689718811567356  4.8866304884150829
  1.8466645208435342  3.7585381373926254 -1.4187617178706631
  3.4450307238951687  0.6801373927838710  1.5298704884145842
  3.8753968512641888  1.4573281188432661 -0.9010904884150823
  0.4180015791070867  1.1785365471702498  2.0475417178711606
