Mg Sn 
 1.0000000000000000
     3.3637617105726529    0.0000000000000000    0.0000000000000000
    -1.6818808552863265    2.9131030514088132   -0.0000000000000000
     0.0000000000000000    0.0000000000000000   14.7671970985749486
 Mg  Sn 
   4   2
Cartesian
 -0.0000016818799838  1.9420676376999906 13.5390772974057061
 -0.0000016818799838  1.9420676376999906  8.6117227025942960
  1.6818816818799835  0.9710323623000093  6.1554772974057066
  1.6818816818799835  0.9710323623000093  1.2281227025942933
  1.6818816818799835  0.9710323623000093 11.0754000000000001
 -0.0000016818799838  1.9420676376999906  3.6918000000000002
