Dy Sn  O 
 1.0000000000000000
     6.4105299730875700   -0.0000000009846173    3.7011212594891365
     2.1368436558392774    6.0439058052720807    3.7011212594891365
     0.0000000000000000   -0.0000000000000000    7.4022425189782730
 Dy  Sn  O  
   4   4  14
Cartesian
  4.2736849999999995  3.0219550000000002  7.4022399999999999
  1.0684199999999999  3.0219550000000002  5.5516800000000002
  3.2052649999999998  0.0000000000000000  5.5516800000000002
  4.2736849999999995  3.0219550000000002  3.7011200000000000
  0.0000000000000000  0.0000000000000000  0.0000000000000000
  0.0000000000000000  0.0000000000000000  3.7011200000000000
  3.2052649999999998  0.0000000000000000  1.8505600000000000
  1.0684199999999999  3.0219550000000002  1.8505600000000000
  1.9852803810947646  3.9917831735860370  3.4386091659793823
  4.4252471189052356  0.5411493264139627  7.6647508340206185
  4.4252471189052356  0.5411493264139627  3.4386091659793827
  5.3421062499999996  3.7774437500000002  9.2528000000000006
  6.5620896189052349  2.0521268264139629  7.1397291659793831
  4.1221228810947643  5.5027606735860370  7.1397291659793822
  2.9021423668264075  2.0521268264138617  9.2527999999999988
  7.7820701331735931  5.5027606735861392  9.2528000000000006
  6.5620896189052349  2.0521268264139629 11.3658708340206189
  1.9852803810947646  3.9917831735860370  7.6647508340206176
  4.1221228810947643  5.5027606735860370 11.3658708340206172
  3.2052637499999994  2.2664662500000001  5.5516800000000002
  5.6452276331735938  3.9917831735861391  5.5516800000000011
  0.7652998668264077  0.5411493264138618  5.5516799999999993
