Ca Sn  O 
 1.0000000000000000
     3.2399813888472395   -0.0000000000000000    0.0000000000000002
     0.0000000000000016   10.1240457292182260    0.0000000000000006
    -0.0000000000000000   -0.0000000000000000   12.1271614265898293
 Ca  Sn  O  
   4   8  16
Cartesian
  2.4299850000000003  2.7357010251431904 10.2189418690531557
  0.8099950000000000  7.3883489748568101  1.9082181309468480
  2.4299850000000003  7.7977260251431906  7.9717981309468442
  0.8099950000000000  2.3263239748568094  4.1553618690531504
  0.8099950000000000  9.2087357018562823  4.7773413572153256
  2.4299850000000003  0.9153142981437129  7.3498186427846770
  2.4299850000000003  5.9773392981437183 10.8409213572153238
  0.8099950000000000  4.1467107018562910  1.2862386427846733
  0.8099950000000000  9.5420414453382296 10.7643032728796921
  2.4299850000000003  0.5820085546617713  1.3628567271203103
  0.8099950000000000  4.4800164453382294  7.4264367271203087
  2.4299850000000003  5.6440335546617719  4.7007232728796886
  0.8099950000000000  6.2289282225473617  6.1064822617297132
  0.8099950000000000  2.8386804498019926  8.5745629869836151
  2.4299850000000003  7.2853695501980100  3.5525970130163835
  2.4299850000000003  8.9571467774526390  0.0429022617297129
  0.8099950000000000  1.1669032225473628 12.0842577382702867
  2.4299850000000003  3.8951217774526383  6.0206777382702885
  2.4299850000000003  5.4124165346981608  8.4026750569682811
  2.4299850000000003  0.7164126733149450  4.9400548650409606
  2.4299850000000003  0.3503915346981583  9.7880649430317188
  0.8099950000000000  9.7736584653018408  2.3390950569682798
  2.4299850000000003  5.7784376733149454  1.1235251349590376
  0.8099950000000000  4.3456123266850568 11.0036348650409668
  0.8099950000000000  7.9007054498019906  9.6161770130163848
  0.8099950000000000  9.4076373266850553  7.1871051349590331
  0.8099950000000000  4.7116334653018423  3.7244849430317188
  2.4299850000000003  2.2233445501980085  2.5109829869836164
