Ce Ni Sb 
 1.0000000000000000
     4.2266308680584483   -0.0405663212727678   -3.8835972949385393
    -0.8422776581010286    4.1420553194784038   -3.8835972952744879
     0.0334733928786905    0.0405663192084580    5.7398271080893482
 Ce  Ni  Sb 
   1   2   2
Cartesian
  0.0000000000000000  0.0000000000000000  0.0000000000000000
  2.1296069854080097  2.5808683364844511 -4.8875214966125471
  1.2547430145919907  1.5206216635155492 -2.8796785033874532
  2.9761375000000001  1.0253725000000000 -1.0136849999999997
  0.4416825000000000  3.1166874999999998 -1.0136849999999997
