Pb  I 
 1.0000000000000000
     4.5891736750753882   -0.0000000000115147   -0.0000000000000001
    -2.2945863375576159    3.9743409103055094    0.0000000000000000
    -0.0000000000000004   -0.0000000000000003   49.2864150473792790
 Pb  I  
   7  14
Cartesian
 -0.0000056279199777  2.6495613247799872  8.9169583732126405
 -0.0000056279199777  2.6495613247799872 22.9846780979121874
  0.0000000000000000  0.0000000000000000 44.1125252033937016
 -0.0000056279199777  2.6495613247799872 37.0525019394134461
 -0.0000056279199777  2.6495613247799872 30.0162974156719002
 -0.0000056279199777  2.6495613247799872 15.9543563095669558
 -0.0000056279199777  2.6495613247799872  1.8824113566581600
  2.2945856279199779  1.3247786752200128 10.8114446405613673
  0.0000000000000000  0.0000000000000000 14.0601055259475203
  0.0000000000000000  0.0000000000000000 28.1223277259567759
  2.2945856279199779  1.3247786752200128 31.9105554756036547
  0.0000000000000000  0.0000000000000000 49.2750376228282221
 -0.0000056279199777  2.6495613247799872 42.2181063761063555
  2.2945856279199779  1.3247786752200128 38.9468850015503563
  0.0000000000000000  0.0000000000000000  7.0227231337750338
  2.2945856279199779  1.3247786752200128 24.8787170473655870
  2.2945856279199779  1.3247786752200128  3.7771331143479081
  0.0000000000000000  0.0000000000000000 21.0907942210411434
  2.2945856279199779  1.3247786752200128 46.0072858413649044
  2.2945856279199779  1.3247786752200128 17.8483544548798427
  0.0000000000000000  0.0000000000000000 35.1576557364228606
