Rb Mo Br 
 1.0000000000000000
     3.7309375698526899   -6.4621745928806096   -0.0000000000000000
     3.7309375698526899    6.4621745928806096    0.0000000000000000
    -0.0000000000000000    0.0000000000000000   18.1030925933242735
 Rb  Mo  Br 
   6   4  18
Cartesian
  0.0000000000000000  0.0000000000000000 13.5773175000000013
  0.0000000000000000  0.0000000000000000  4.5257725000000004
  3.7309399999999999  2.1540609747799584 16.8509885005428117
  3.7309399999999999 -2.1540609747799588  7.7994435005428091
  3.7309399999999999  2.1540609747799584 10.3036464994571890
  3.7309399999999999 -2.1540609747799588  1.2521014994571882
  3.7309399999999999  2.1540609747799584  5.9432231606058075
  3.7309399999999999 -2.1540609747799588 14.9947681606058136
  3.7309399999999999  2.1540609747799584  3.1083218393941934
  3.7309399999999999 -2.1540609747799588 12.1598668393941889
  1.9123137706479529  1.1040778730022629  7.4191631216117901
  1.8144980934464250  3.2605136092730280  4.5257725000000004
  3.7309399999999990  0.0588572185459633 13.5773175000000013
  1.8144980934464250 -3.2605136092730280 13.5773175000000013
  1.9164419065535758 -3.2016563907269751  4.5257725000000004
  3.7309399999999990 -0.0588572185459633  4.5257725000000004
  1.9164419065535758  3.2016563907269751 13.5773175000000013
  5.5495662293520454 -1.1040778730022613 16.4707081216117928
  1.9123137706479529  1.1040778730022629  1.6323818783882107
  5.5495662293520462  1.1040778730022607  1.6323818783882107
  3.7309399999999977  4.2540271783354369  1.6323818783882107
  5.5495662293520454  1.1040778730022616  7.4191631216117901
  1.9123137706479527 -1.1040778730022629 16.4707081216117928
  5.5495662293520454 -1.1040778730022620 10.6839268783882080
  1.9123137706479527 -1.1040778730022629 10.6839268783882080
  3.7309399999999977 -4.2540271783354369 10.6839268783882080
  3.7309399999999977 -4.2540271783354369 16.4707081216117928
  3.7309399999999977  4.2540271783354369  7.4191631216117901
