Si  C Cl  F 
 1.0000000000000000
     6.0823685411001023    0.0007037302046479    0.2257759274844245
     0.2100283921190580    7.2141112445395494    1.6628667677252289
    -0.0023204710466553    0.0906012631789188    7.4057022213698263
 Si  C   Cl  F  
   2   2   6   6
Cartesian
  4.2868696473234502  5.9217775877103254  7.5039942851835022
  2.0032103526765490  1.3836324122896753  1.7903557148165004
  1.5928465897591333  2.5803223032225970  3.2595763911105800
  4.6972334102408713  4.7250876967774031  6.0347736088894228
  2.2665234935115772  6.0805240861206000  7.6261985644671535
  1.2257093299815371  2.3022192833227164  7.5157209721120113
  5.0643706700184623  5.0031907166772829  1.7786290278879904
  4.9300125280849363  0.4960017944745226  5.4122337758426333
  4.0235565064884238  1.2248859138793966  1.6681514355328473
  1.3600674719150621  6.8094082055254788  3.8821162241573663
  4.1670600702526590  3.4819150696397148  6.2258926381471928
  4.2180927706090161  5.1938620972871066  4.8457554938492251
  0.2380900345325802  2.7376314256284231  3.4046096589018422
  2.0719872293909831  2.1115479027128949  4.4485945061507719
  6.0519899654674187  4.5677785743715740  5.8897403410981592
  2.1230199297473389  3.8234949303602841  3.0684573618528077
