Hf Be Os 
 1.0000000000000000
    -1.9851163721927292    1.9851163721927292    3.2434310415596723
     1.9851163721927292   -1.9851163721927292    3.2434310415596723
     1.9851163721927292    1.9851163721927292   -3.2434310415596723
 Hf  Be  Os 
   1   2   1
Cartesian
  1.9851200000000000  0.0000000000000000  1.6217150000000000
  0.0000000000000000  0.0000000000000000  0.0000000000000000
  0.0000000000000000  0.0000000000000000  3.2434300000000000
  0.0000000000000001  1.9851199999999998  1.6217150000000000
