Li Co Ni  O 
 1.0000000000000000
     2.8171854265838157   -0.0000000000267732   -0.3388865157422002
    -1.5143398531426751    4.6212967509228138   -0.7096395327709385
     0.0757690864805131    0.2808085291960706   12.5090384783700284
 Li  Co  Ni  O  
   5   4   1  10
Cartesian
  0.3942596168385878  2.4224234180271567  3.2774873698272651
 -0.7192850000000000  2.4510549999999998  5.8997000000000002
  0.9843603831614121  2.4796865819728415  8.1830226301727418
 -0.1326212100275833  2.5478601528044633 10.7766633269520522
  1.5112412100275843  2.3542498471955349  0.6838466730479500
  1.7090673272766144  0.0986949103959902  2.3283951767378395
  0.5950927566931422  0.1250957771704875  4.9470217125021563
  0.7835272433068566  4.7770142228295125  6.5134882874978484
 -0.3304473272766141  4.8034150896040106  9.1321148232621585
  0.0000000000000000  0.0000000000000000  0.0000000000000000
  0.2080534158763385  1.1398322159568972  1.7295643656635975
  1.9047576980063681  1.1290753741405855  3.9551736020901660
  0.7896758215253541  1.1646269274903316  6.5646068876001094
  2.4921402408853019  1.1867130247032185  8.8381121408436023
  1.3743708408460835  1.2482853279358672 11.4252037932548216
  0.5889441784746462  3.7374830725096699  4.8959031123998962
 -0.5261376980063673  3.7730346258594132  7.5053363979098320
  1.1705665841236621  3.7622777840431021  9.7309456343363951
  0.0042491591539161  3.6538246720641316  0.0353062067451773
 -1.1135202408853027  3.7153969752967817  2.6223978591563957
