Ce Sc Si 
 1.0000000000000000
     4.0832995423494829   -0.0000000008373278   -1.0723798685515458
    -0.2816345040304792    4.0735748975519064   -1.0723798683510268
     0.0324681500042011    0.0347905297705254    8.4338052520346167
 Ce  Sc  Si 
   2   2   2
Cartesian
  2.5928098409350473  2.7782498910078646  1.5624470724506241
  1.2413301590649455  1.3301101089921270  4.7266029275493526
  2.0416500000000002  0.0000000000000000 -0.5361900000000001
 -0.1408150000000000  2.0367850000000001 -0.5361900000000001
  3.3557124107686573  3.5957152630534446  4.4673450914642849
  0.4784275892313450  0.5126447369465578  1.8217049085357302
