 K Ba Sb  O 
 1.0000000000000000
     8.0324923900951468   -0.0000000021701746   -3.7715012930132534
    -1.7708360061595805    7.8348620558745914   -3.7715012848967278
    -0.0026523694489063   -0.0033197242226627   10.4338448531659775
 K   Ba  Sb  O  
   2   8   6   2
Cartesian
  0.0000000000000000  0.0000000000000000  0.0000000000000000
  3.1308249999999997  3.9174300000000000 -3.7715000000000001
  1.4829561649173444  0.0459876069460278  6.4985533566263038
 -0.8486642050423703  3.9634176069469085  5.2918387112089436
  5.1803723256486052  1.4566059121796819  3.9337680020459427
  1.0786276743513949  6.3749340878203178 -1.0429280020459430
  7.1076642050423668  3.8681223930530928 -2.4009987112089433
  4.7760438350826542  7.7855523930539698 -3.6077133566263009
  3.4102480443111087  2.4575040878194390  0.1637866433714147
  2.8487519556888912  5.3740359121805605  2.7270533566285842
  0.2623086136726525  3.0001607653549596 -1.8857499999970531
  4.6949125000000000  5.8744850000000000 -0.4403300000000003
  1.5123199285191855  6.9175907653525481 -4.7741503866160349
  4.7493300714808147  0.9172692346474519 -2.7688496133839653
  5.9993413863273481  4.8346992346450417 -5.6572500000029482
  1.5640874999999999  1.9570550000000000  3.3311700000000002
  0.6786674999999998  5.8744850000000000  1.4454199999999999
  5.5803324999999999  1.9570550000000000  1.4454199999999999
