Tb Re Si  C 
 1.0000000000000000
    -0.0000000011833712   -4.0054978258354792   -0.0000000004955742
     4.3687422241024496   -2.0027484123691286   -3.3351884626591075
     4.3499875934773318   -2.0027484115168868    3.6331863473723343
 Tb  Re  Si  C  
   2   2   2   1
Cartesian
  4.9937548091382942 -4.0055020027498562 -1.7323398230677105
  3.7249751908617057 -4.0054979972501439  2.0303398230677105
  1.8051316767128724 -4.0054999999998877 -0.7364129680436274
  6.9135983232871281 -4.0055000000001124  1.0344129680436278
  5.6032993903733033 -6.0082479972499572  0.4690856901983481
  3.1154306096266975 -2.0027520027500407 -0.1710856901983489
  0.0000000000000000  0.0000000000000000  0.0000000000000000
