Ga  I 
 1.0000000000000000
     7.3055066986635113    0.0000000000000000    0.0000000000000000
    -3.6527533493317557    6.3267543885485651   -0.0000000000000000
     0.0000000000000000   -0.0000000000000000    4.4195869759521988
 Ga  I  
   1   3
Cartesian
  0.0000000000000000  0.0000000000000000  0.0000000000000000
  2.4970740551774435  0.0000000000000000  0.0000000000000000
  6.0569746814025880  2.1625267387788587  0.0000000000000000
  2.4042212633336937  4.1642232612211432  0.0000000000000000
