Ru  N 
 1.0000000000000000
     2.7202909741002141    0.0000000000000000    0.0000000000000000
     0.0000000000000000    4.1021979012199719    0.0000000000000000
     0.0000000000000000    0.0000000000000000    4.9125112475474522
 Ru  N  
   2   4
Cartesian
  0.0000000000000000  0.0000000000000000  0.0000000000000000
  1.3601449999999999  2.0510999999999999  2.4562550000000001
  1.3601449999999999  1.5502862538228988  4.4654603516088898
  0.0000000000000000  0.5008137461771015  2.0092053516088888
  1.3601449999999999  2.5519137461771018  0.4470496483911108
  0.0000000000000000  3.6013862538228980  2.9033046483911105
