As  O 
 1.0000000000000000
     6.7279154575452802   -0.0000000089915751    3.8843635911452643
     2.2426387908084653    6.3431396942791034    3.8843635911452652
     0.0000000347407788    0.0000000245654402    7.7687280624298616
 As  O  
   8  12
Cartesian
  6.8955598601589747  4.8758942106498919 11.9434479614208193
  5.9418729921649200  1.4672457892437496  5.8265384289401139
  3.3639577571820491  5.1129662886254303  5.8265384289401130
  3.0286870078350798  4.8758942107562486  9.7109115710598868
  5.6066022428179494  1.2301737113745697  9.7109115710598850
  6.8955598597480376  4.8758942103593164  7.4783694339094788
  2.0750001398410269  1.4672457893501076  3.5940020385791809
  2.0750001402519622  1.4672457896406825  8.0590805660905218
  1.9249576437072899  4.4137329272700976  8.3189680300163822
  6.2419647126189108  4.4137329270286312  5.8265405419388463
  7.0456023562927106  1.9294070727299029  7.2184819699836185
  1.9249576434573052  4.4137329270933323  3.3341194699836181
  4.8029623565426940  0.3436220729066684  8.3189680300163840
  7.0456023565426946  1.9294070729066692 12.2033305300163839
  8.4846047126189106  5.9995179270286316  9.7109030419388453
  2.7285952873810899  1.9294070729713695  9.7109094580611544
  4.1675976434573059  5.9995179270933328  7.2184819699836194
  4.8029623562927108  0.3436220727299021  3.3341194699836176
  4.1675976437072899  5.9995179272700971 12.2033305300163821
  0.4859552873810881  0.3436220729713690  5.8265469580611535
