Tb Si Pt 
 1.0000000000000000
     4.3083471794074208   -0.0000000000000000    0.0000000000000000
    -0.0000000000000000    7.0539351739259182    0.0000000000000000
     0.0000000000000000    0.0000000000000000    7.4943444517500906
 Tb  Si  Pt 
   4   4   4
Cartesian
  3.2312624999999997  3.5543612181330069  5.9950049104299152
  1.0770875000000000  7.0265487818669925  2.2478349104299160
  3.2312624999999997  0.0273912181330054  5.2465050895700847
  1.0770875000000000  3.4995787818669939  1.4993350895700837
  1.0770875000000000  5.7390143622634033  6.8385288911007720
  1.0770875000000000  2.2120443622634030  4.4029811088992279
  3.2312624999999997  1.3149256377365972  0.6558111088992268
  3.2312624999999997  4.8418956377365960  3.0913588911007741
  1.0770875000000000  4.9463439653358110  4.3874133306328300
  1.0770875000000000  1.4193739653358106  6.8540966693671708
  3.2312624999999997  5.6345660346641884  0.6402433306328303
  3.2312624999999997  2.1075960346641898  3.1069266693671698
