Er Ni  O 
 1.0000000000000000
     5.1397137516049352    0.0000000000000000   -0.0051023568657834
     0.0000000000000000    5.5658097260153490    0.0000000000000000
     0.0070656024147376    0.0000000000000000    7.3200350409297421
 Er  Ni  O  
   4   4  12
Cartesian
  5.0259332179295617  0.4480876908392272  1.8250098458906916
  0.1208467820704385  5.1177223091607713  5.4899301541093095
  2.4596132179295616  2.3348173091607727  5.4875798458906901
  2.6871667820704381  3.2309926908392281  1.8273601541093087
  2.5698550000000000  0.0000000000000000 -0.0025500000000000
  0.0035350000000000  2.7829050000000000  3.6600199999999998
  2.5733899999999998  0.0000000000000000  3.6574700000000000
  0.0000000000000000  2.7829050000000000  0.0000000000000000
  3.1291847936974539  0.1821504598621745  5.4869060639846321
  4.5909852063025456  2.9650554598621741  5.4855039360153679
  3.5503223019799655  1.6989966835098926  3.2751060802534462
  3.5475321310313994  1.6989903001936937  0.3778585875978577
  4.1655678689686004  4.4818953001936928  3.2745114124021426
  1.5992478689685981  3.8668196998063067  6.9370814124021400
  0.9812121310314003  1.0839146998063074  4.0404285875978596
  0.9840023019799661  1.0839083164901078  6.9376760802534436
  1.5964576980200333  3.8668133164901093  4.0398339197465560
  4.1627776980200348  4.4819016835098902  0.3772639197465559
  0.5557947936974547  2.6007545401378254  1.8294360639846332
  2.0175952063025453  5.3836595401378258  1.8280339360153652
