Er Cd Se 
 1.0000000000000000
     0.0000000000000000    5.8441626758885263    5.8441626758885263
     5.8441626758885263   -0.0000000000000000    5.8441626758885263
     5.8441626758885263    5.8441626758885263    0.0000000000000000
 Er  Cd  Se 
   4   2   8
Cartesian
  4.3831199999999999  7.3051999999999992  4.3831199999999999
  7.3051999999999992  4.3831199999999999  4.3831199999999999
  7.3051999999999992  7.3051999999999992  7.3051999999999992
  4.3831199999999999  4.3831199999999999  7.3051999999999992
  0.0000000000000000  0.0000000000000000  0.0000000000000000
  2.9220799999999998  2.9220799999999998  2.9220799999999998
  7.2188272988158708  4.4694927011840049  7.2188272988158708
  4.4694927011840049  7.2188272988158708  7.2188272988158708
  4.4694927011840049  4.4694927011840049  4.4694927011840049
  7.2188272988158708  7.2188272988158708  4.4694927011840049
 10.1409072988159945  7.3915727011841295  7.3915727011841295
  7.3915727011841295 10.1409072988159945  7.3915727011841295
 10.1409072988159945 10.1409072988159945 10.1409072988159945
  7.3915727011841295  7.3915727011841295 10.1409072988159945
