Ti  O 
 1.0000000000000000
     5.1459482447102074   -0.0000000005647455    2.9710138775129211
     1.7153164131101675    4.8516456372212842    2.9710138775129207
     0.0000000021820086    0.0000000015429127    5.9420287474641267
 Ti  O  
   4   8
Cartesian
  3.4306350000000001  2.4258250000000001  5.9420250000000001
  3.4306350000000001  2.4258250000000001  2.9710100000000002
  0.8576600000000000  2.4258250000000001  4.4565200000000003
  2.5729750000000000  0.0000000000000000  4.4565200000000003
  1.8197986253951768  1.2867918039809245  3.1519788397962905
  5.0414713746051856  3.5648581960193311  6.1229891443492885
  2.7819395985134912  3.5648581960189820  7.4275323477235000
  4.2882926522764997  1.4345504119426129  7.4275323477235000
  4.0793304014865095  1.2867918039810184  4.4565176522765002
  2.5729773477235001  3.4170995880573876  4.4565176522764993
  1.8197986253948144  1.2867918039806685  5.7610608556507099
  5.0414713746048241  3.5648581960190748  8.7320711602037111
