Li Be  B  O 
 1.0000000000000000
     4.6398406147730160    0.0015934208155860    0.0030131991360488
     2.2678521977701571    4.1146766100389396   -0.0151979323612263
     1.8260479026389616    1.4984290510695841    5.3526274740337767
 Li  Be  B   O  
   2   2   2   6
Cartesian
  4.9615648052931300  1.5217983673904356  3.5513302033798926
  3.7721751947068709  4.0929016326095633  1.7891097966201062
  4.8570297735374179  4.2544632536030402  4.4954898124731679
  3.8767102264625835  1.3602367463969598  0.8449501875268338
  2.6497112446531399  2.8079984843193064  4.1008045161499096
  6.0840287553468588  2.8067015156806931  1.2396354838500916
  3.1568057232080164  1.5490862456104839  4.0648988171190155
  5.5769342767919827  4.0656137543895143  1.2755411828809837
  3.4351752250563701  3.9000309116377450  3.7717895319274790
  5.2985647749436309  1.7146690883622562  1.5686504680725228
  5.9438107152485271  2.9947829394038599  4.4810966962398835
  2.7899292847514729  2.6199170605961402  0.8593433037601172
