Mn Be Rh 
 1.0000000000000000
     2.7075671758835886    0.0000000000000000    0.0000000000000000
    -0.0000000000000000    2.7075671758835886   -0.0000000000000000
     0.0000000000000000    0.0000000000000000    6.3782297844899931
 Mn  Be  Rh 
   1   1   2
Cartesian
  1.3537850000000000  1.3537850000000000  4.5981493876130521
  0.0000000000000000  0.0000000000000000  3.2063438116460725
  0.0000000000000000  0.0000000000000000  6.2494185597605689
  1.3537850000000000  1.3537850000000000  1.8916568627503265
