Tb Li  F 
 1.0000000000000000
     5.7357322446351162    0.0000000000000000   -0.0000000000000000
     0.0000000000000000    9.8663784053629371    0.0000000000000000
     0.0000000000000000    0.0000000000000000    9.8466995652810496
 Tb  Li  F  
   4  16  32
Cartesian
  4.9552649506927846  3.6052506968049274  7.3850250000000006
  3.6483300493072153  8.5384406968049262  7.3850250000000006
  0.7804650493072154  6.2611293031950721  2.4616750000000001
  2.0873999506927836  1.3279393031950733  2.4616750000000001
  3.6297593094955136  3.9174376054420401  4.1354127419765749
  0.7618943094955141  1.0157523945579605  5.7112872580234288
  4.9738356905044867  8.8506276054420407  0.7879372580234253
  2.1059706905044866  5.9489423945579576  9.0587627419765706
  2.1059706905044866  5.9489423945579576  5.7112872580234288
  4.9738356905044867  8.8506276054420407  4.1354127419765749
  0.6847407344675545  3.6460992639865806  0.5800563971757867
  3.6297593094955136  3.9174376054420401  0.7879372580234253
  0.6847407344675545  3.6460992639865806  4.3432936028242146
  3.5526057344675550  1.2870907360134185  5.5034063971757909
  2.1831242655324461  8.5792892639865812  0.5800563971757867
  5.0509892655324453  6.2202807360134171  9.2666436028242103
  5.0509892655324453  6.2202807360134171  5.5034063971757909
  2.1831242655324461  8.5792892639865812  4.3432936028242146
  3.5526057344675550  1.2870907360134185  9.2666436028242103
  0.7618943094955141  1.0157523945579605  9.0587627419765706
  4.9516401129778149  2.6288046162847665  5.2030165947855798
  0.7840898870221864  7.2375753837152326  0.2796665947855804
  3.6519548870221854  7.5619946162847667  9.5670334052144206
  3.6519548870221854  7.5619946162847667  5.2030165947855798
  0.7840898870221864  7.2375753837152326  4.6436834052144205
  4.9516401129778149  2.6288046162847665  9.5670334052144206
  5.0856105106294605  6.8205392326119707  7.3850250000000006
  0.6501194893705399  3.0458407673880310  2.4616750000000001
  3.5179844893705403  1.8873492326119690  7.3850250000000006
  2.2177455106294595  7.9790307673880285  2.4616750000000001
  3.5995679590249678  2.9773330859902192  2.4616750000000001
  0.7317029590249678  1.9558569140097823  7.3850250000000006
  2.0837751129778144  2.3043853837152324  4.6436834052144205
  2.0837751129778144  2.3043853837152324  0.2796665947855804
  3.5172367904636417  0.1926450062274317  3.8065599132185124
  2.1029572918601853  5.0503728972572608  1.0880464114859649
  5.0863582095363586  5.1258350062274305  1.1167900867814895
  2.2184932095363603  9.6737349937725696  8.7299099132185152
  2.2184932095363603  9.6737349937725696  6.0401400867814852
  5.0863582095363586  5.1258350062274305  3.8065599132185124
  0.6493717904636397  4.7405449937725681  8.7299099132185152
  3.5172367904636417  0.1926450062274317  1.1167900867814895
  0.7649077081398143  0.1171828972572613  3.8353035885140363
  3.6327727081398158  4.8160071027427378  6.0113964114859684
  5.0040270409750320  7.9105230859902163  2.4616750000000001
  4.9708222918601841  9.7491971027427375  8.7586535885140329
  4.9708222918601841  9.7491971027427375  6.0113964114859684
  2.1029572918601853  5.0503728972572608  3.8353035885140363
  3.6327727081398158  4.8160071027427378  8.7586535885140329
  0.7649077081398143  0.1171828972572613  1.0880464114859649
  0.6493717904636397  4.7405449937725681  6.0401400867814852
  2.1361620409750310  6.8890469140097830  7.3850250000000006
