Li Mn  O 
 1.0000000000000000
     9.8758057963051993    0.0000000000000000    0.0000000000000005
    -0.0000000000000003    5.0125508872736253    1.3660716506061379
    -0.0000000000000000    0.1651449649493017    5.1657314047562544
 Li  Mn  O  
  12   4  12
Cartesian
  7.6842006085766430  4.8628689592102079  5.5754299854664744
 -0.0361417174409125  4.0730528874671039  4.1962132137228139
  2.5542336511282246  4.5173544099199665  4.5450979696973244
  7.1295143914233563  2.3565939592102141  4.8923949854664759
  7.4921386511282275  3.1666105900800336  2.6697370303026715
  4.9740467174409133  1.5667778874671014  3.5131782137228131
  4.9017632825590853  3.6109121125328962  3.0186217862771882
  2.3836713488717733  2.0110794099199674  3.8620629696973250
  2.7462956085766490  2.8210960407897914  1.6394050145335248
  7.3215763488717718  0.6603355900800326  1.9867020303026712
  0.0361417174409174  1.1046371125328971  2.3355867862771884
  2.1916093914233512  0.3148210407897883  0.9563700145335241
  4.7198368209249137  1.0586656433734500  0.9828040953988383
  0.2180681790750850  3.5649406433734492  1.6658390953988380
 -0.2180681790750840  1.6127493566265478  4.8659609046011605
  5.1559731790750840  4.1190243566265510  5.5489959046011617
  8.7407830486173399  3.1798379910444816  5.5855564308609109
  3.9792787948395381  2.8612167547691314  4.7292524097660138
  6.4023719620027366  4.0553256904498891  4.1407508073198942
  1.4644669620027313  3.6286393095501110  3.0740841926801052
  8.9171837948395396  4.8227482452308683  2.4855825902339821
  3.8028780486173335  4.5041270089555185  1.6292785691390899
  6.0729319513826594  0.6735629910444810  4.9025214308609115
  0.9586262051604625  0.3549417547691298  4.0462174097660135
  8.4113430379972627  1.5490506904498911  3.4577158073198944
  3.4734380379972665  1.1223643095501099  2.3910491926801050
  5.8965312051604597  2.3164732452308696  1.8025475902339823
  1.1350269513826641  1.9978520089555194  0.9462435691390901
