Zr Ga Os 
 1.0000000000000000
     7.6302705895201939    0.0000000000017240    4.4053396194215688
     2.5434238631760544    7.1938882404143678    4.4053396194215688
     0.0000000000017848    0.0000000000012621    8.8106782388369549
 Zr  Ga  Os 
   6  16   7
Cartesian
  7.3191804722893732  5.1754456060483260  8.8106799999999961
  3.9706761667433121  5.1754456060483260  6.8774194525496064
  6.2030138332566844  2.0184443939516705  6.8774194525496073
  2.8545095277106225  2.0184443939516705  8.8106799999999961
  6.2030138332566835  2.0184443939516705 10.7439405474503857
  3.9706761667433121  5.1754456060483260 10.7439405474503857
  3.5280508808863980  2.4947103707209326  6.1107675455430952
  8.2044424006788415  2.4947103707209326  8.8106844053399893
  5.0868460112383378  6.9036560817271830  8.8106844053399893
  3.5280508808863980  2.4947103707209326 11.5106012651368825
  6.6456391191136017  4.6991796292790662 11.5105924544569032
  1.9692475993211593  4.6991796292790662  8.8106755946600099
  5.0868439887616619  0.2902339182728177  8.8106755946600099
  6.6456391191136017  4.6991796292790662  6.1107587348631176
  5.1097565392743673  0.8911362381111063  4.4053400000000016
  2.5434212387404291  4.5204812856666834  4.4053400000000007
  1.2602561109926034  0.8911362381111054  6.6278508963020686
  8.9134338890073987  6.3027537618888951 15.4385308963020691
  5.0639334607256341  6.3027537618888951 13.2160200000000003
  7.6302687612595719  2.6734087143333172 13.2160200000000003
  8.9134338890073987  6.3027537618888951 10.9935091036979316
  1.2602561109926025  0.8911362381111054  2.1828291036979310
  1.2717099999999999  3.5969449999999998  2.2026699999999999
  0.0000000000000000  0.0000000000000000  0.0000000000000000
  0.0000000000000000  0.0000000000000000  4.4053399999999998
  3.8151350000000002  0.0000000000000000  6.6080100000000002
  1.2717099999999999  3.5969449999999998  6.6080100000000002
  5.0868450000000003  3.5969449999999998  4.4053399999999998
  3.8151350000000002  0.0000000000000000  2.2026699999999999
