Er Pt 
 1.0000000000000000
     4.6827275552694196    0.0000000014393719    2.7035739884923546
     1.5609088539738631    4.4149185583703758    2.7035739884923546
     0.0000000014901474    0.0000000010536936    5.4071489718226866
 Er  Pt 
   2   4
Cartesian
  5.4631850000000002  3.8630550000000001  9.4625037499999998
  0.7804550000000000  0.5518650000000000  1.3517862500000000
  3.1218200000000000  2.2074600000000002  5.4071449999999999
  3.1218200000000000  2.2074600000000002  2.7035700000000000
  0.7804550000000000  2.2074600000000002  4.0553600000000003
  2.3413650000000001  0.0000000000000000  4.0553600000000003
