Mg Ta Os 
 1.0000000000000000
    -0.0000000000000000    3.1492533201194153    3.1492533201194153
     3.1492533201194153    0.0000000000000000    3.1492533201194153
     3.1492533201194153    3.1492533201194153   -0.0000000000000000
 Mg  Ta  Os 
   1   1   2
Cartesian
  1.5746187015000157  1.5746187015000157  1.5746187015000157
  4.7238749999999996  4.7238749999999996  4.7238749999999996
  0.0000000000000000  0.0000000000000000  0.0000000000000000
  3.1492499999999999  3.1492499999999999  3.1492499999999999
