Li Lu Ru 
 1.0000000000000000
     0.0000000000000000    3.3745608681166557    3.3745608681166557
     3.3745608681166557    0.0000000000000000    3.3745608681166557
     3.3745608681166557    3.3745608681166557    0.0000000000000000
 Li  Lu  Ru 
   1   2   1
Cartesian
  1.6872867491199828  1.6872867491199828  1.6872867491199828
  0.0000000000000000  0.0000000000000000  0.0000000000000000
  3.3745599999999998  3.3745599999999998  3.3745599999999998
  5.0618400000000001  5.0618400000000001  5.0618400000000001
