 K  B  C  N 
 1.0000000000000000
     6.3448024240591279    0.0000116871171633   -2.7960492811977140
    -1.2321805530249363    6.2240109932952850   -2.7960386030436486
    -0.0181658637951225   -0.0221295193930626    8.5556234121323786
 K   B   C   N  
   2   2   8   8
Cartesian
  2.8828000000000000  5.4404824999999999 -2.0551612500000007
  2.2116500000000001  0.7614074999999999  5.0186912499999998
  4.7679600000000004  3.8734175000000000  2.2226462499999990
  0.3264900000000000  2.3284724999999997  0.7408837499999998
  3.9264160902458713  2.5277092461858746  2.2246646572868527
  1.1084472499365436  1.2416111234150606 -0.1114124793190921
  0.1336411364484456  1.7724723983700947  2.2149280387670354
  4.9608088635515539  4.4294176016299049  0.7486019612329665
 -0.1461877038608835  3.5762542755992768  5.6384259021610861
  3.9860027500634567  4.9602788765849395  3.0749424793190894
  1.1680339097541272  3.6741807538141225  0.7388653427131427
  5.2406377038608882  2.6256357244007176 -2.6748959021610843
  4.1891437253876367  2.8711257134033996 -3.1050852904810524
  3.3875965534349071  5.7573487136012877  3.6729048325791558
  5.1254962745477473  4.8616390921737258 -0.3177149526803568
  1.7068534465650953  0.4445412863987098 -0.7093748325791553
  0.9053062746123567  3.3307642865966023  6.0686152904810529
  3.3086408974049895  1.5439079076283819  2.2628298296201548
 -0.0310462745477479  1.3402509078262734  3.2812449526803635
  1.7858091025950109  4.6579820923716166  0.7007001703798468
