Na  Y Cl 
 1.0000000000000000
     6.4155461643848648   -0.0000000000000000    3.7040173050060741
     2.1385153881282890    6.0486349304691771    3.7040173050060741
    -0.0000000000000000   -0.0000000000000000    7.4080346100121464
 Na  Y   Cl 
   3   1   6
Cartesian
  6.4155524999999995  4.5364725000000004 11.1120525000000008
  2.1385174999999998  1.5121575000000000  3.7040175000000000
  4.2770349999999997  3.0243150000000001  7.4080349999999999
  0.0000000000000000  0.0000000000000000  0.0000000000000000
  5.3537109904684819  1.5016661768148982  5.5431783032571129
  2.1236805017180775  1.5016661768148982  7.4080324826550425
  3.2003590095315180  4.5469638231851022  9.2728916967428887
  3.2003590095315180  4.5469638231851022  5.5431783032571129
  5.3537109904684819  1.5016661768148982  9.2728916967428869
  6.4303894982819223  4.5469638231851022  7.4080375173449582
