 V Rh 
 1.0000000000000000
     4.7692926567585801    0.0000000000000000    0.0000000000000000
    -0.0000000000000000    4.7692926567585801    0.0000000000000000
     0.0000000000000000   -0.0000000000000000    4.7692926567585801
 V   Rh 
   6   2
Cartesian
  2.3846449999999999  1.1923225000000000  0.0000000000000000
  2.3846449999999999  3.5769674999999999  0.0000000000000000
  1.1923225000000000  0.0000000000000000  2.3846449999999999
  3.5769674999999999  0.0000000000000000  2.3846449999999999
  0.0000000000000000  2.3846449999999999  1.1923225000000000
  0.0000000000000000  2.3846449999999999  3.5769674999999999
  2.3846449999999999  2.3846449999999999  2.3846449999999999
  0.0000000000000000  0.0000000000000000  0.0000000000000000
