Li Mn  F 
 1.0000000000000000
     6.2856376305347537   -0.0000000000000000    0.0000000000000000
     0.0000000000000000    6.3051763819964757    0.0000000000000000
     0.0000000000000000    0.0000000000000000    6.5550289879518546
 Li  Mn  F  
   4   4  16
Cartesian
  1.5712782120711390  1.5762950000000000  1.6389780872909776
  1.5715417879288616  4.7288850000000000  4.9164930872909789
  4.7140982120711410  1.5762950000000000  1.6385369127090230
  4.7143617879288584  4.7288850000000000  4.9160519127090216
 -0.0000446862238719  1.5762950000000000  4.9157240947217549
  3.1428646862238714  4.7288850000000000  1.6382090947217549
  3.1427753137761263  1.5762950000000000  4.9168209052782457
  0.0000446862238738  4.7288850000000000  1.6393059052782444
  4.7145727007923304  1.5762950000000000  6.1993420172305846
  4.7146210450698360  4.7288850000000000  0.3556581144929961
  4.7138389549301642  1.5762950000000000  3.6331731144929966
  4.7138872992076699  4.7288850000000000  2.9218270172305836
  3.1428334081653126  3.4061561396175160  4.9168291366229964
  3.1428334081653126  6.0516138603824841  4.9168291366229964
  3.1428065918346859  2.8990238603824832  1.6382008633770027
  1.5710189549301639  1.5762950000000000  6.1993718855070039
  1.5717527007923318  1.5762950000000000  3.6332029827694163
  1.5718010450698359  4.7288850000000000  2.9218568855070042
  6.2856265918346876  2.8990238603824832  1.6393141366229973
  1.5710672992076675  4.7288850000000000  0.3556879827694172
  0.0000134081653133  3.4061561396175160  4.9157158633770042
  0.0000134081653133  6.0516138603824841  4.9157158633770042
  3.1428065918346859  0.2535661396175161  1.6382008633770027
  6.2856265918346876  0.2535661396175161  1.6393141366229973
