Ce Ge Ir 
 1.0000000000000000
     4.4024782930795405   -0.0000000000000000    0.0000000000000000
     0.0000000000000000    7.0587873746029670    0.0000000000000000
     0.0000000000000000    0.0000000000000000    7.6766599512838658
 Ce  Ge  Ir 
   4   4   4
Cartesian
  1.1006199999999999  6.9609297217264690  2.3053093552479251
  3.3018599999999996  3.6272552782735308  6.1436393552479247
  3.3018599999999996  0.0978602782735295  5.3713506447520754
  1.1006199999999999  3.4315347217264711  1.5330206447520740
  1.1006199999999999  2.2761874878023440  4.4710395170079060
  3.3018599999999996  1.2532075121976560  0.6327095170079063
  3.3018599999999996  4.7826025121976574  3.2056204829920936
  1.1006199999999999  5.8055824878023428  7.0439504829920940
  1.1006199999999999  5.0769663281569333  4.5333059988636597
  3.3018599999999996  5.5112186718430669  0.6949759988636569
  3.3018599999999996  1.9818236718430637  3.1433540011363430
  1.1006199999999999  1.5475713281569357  6.9816840011363404
