Sm Mg Pt 
 1.0000000000000000
     3.7323997452266893   -6.4647057477129053   -0.0000000000000000
     3.7323997452266893    6.4647057477129053    0.0000000000000000
     0.0000000000000000    0.0000000000000000    4.1066500442569325
 Sm  Mg  Pt 
   3   3   3
Cartesian
  4.3985478117810626 -0.0000000000000001  0.0000000000000000
  1.5331260941094682 -2.6554537541129548  0.0000000000000000
  1.5331260941094682  2.6554537541129548  0.0000000000000000
  2.8245577504169570  4.8922802311373719  2.0533250000000001
  1.8156844991660868 -0.0000000000000001  2.0533250000000001
  2.8245577504169570 -4.8922802311373719  2.0533250000000001
  0.0000000000000000  0.0000000000000000  0.0000000000000000
  3.7324000000000002  2.1549076431399588  2.0533250000000001
  3.7324000000000002 -2.1549076431399588  2.0533250000000001
