Ti5 Se4
1.0
   3.3894348360038880    0.0000000000000001    0.8692739105036570
   1.6947174167295758    6.8591766442602022    0.4346369602129890
  -0.0092793889934639   -0.0000000051217221    7.0787853175052877
Ti Se
5 4
direct
   0.0000000000000000    0.0000000000000000    0.0000000000000000 Ti
   0.3067717174994777    0.0652174148682668    0.3212383847621490 Ti
   0.6280098817109544    0.6787620731045826    0.0652174183462638 Ti
   0.3719890301546448    0.3212384168757305    0.9347832236708556 Ti
   0.6932271943661217    0.9347830751120465    0.6787622572549701 Ti
   0.0573918024303424    0.2155430951387723    0.6696727344915786 Se
   0.7270632130795063    0.3303279356435502    0.2155429732160679 Se
   0.2729356987860933    0.6696725543367636    0.7844576688010513 Se
   0.9426071094352566    0.7844573948415410    0.3303279075255408 Se
