Mg2 Mo2 W2 S8
1.0
   6.4651205158915355    0.0064781501406833    3.8921740087719185
   2.7035623006809772    5.6883712245937366    2.8152526016696671
   0.2554874322216318   -0.1878534000835106    6.8914664849043081
Mg Mo W S
2 2 2 8
direct
   0.8721861329843239    0.8778354353389822    0.8778355940829509 Mg
   0.0186934138789188    0.2312981960043527    0.2313018195832150 Mg
   0.4824560042972253    0.5032126289815599    0.0318696611609229 Mo
   0.4824562023713736    0.0318704840996107    0.5032101608257454 Mo
   0.4775514066835728    0.4702795068736629    0.4702803385412673 W
   0.0818729342309923    0.4702838428377073    0.4702836578765157 W
   0.7090659495446756    0.7527158620708704    0.7527150429043558 S
   0.2110411533776809    0.3046514268991245    0.7732592502382151 S
   0.2110377362437328    0.7732614100701303    0.3046519392578849 S
   0.7529405567333713    0.1934533211256453    0.1934505063754963 S
   0.7775145112445303    0.2746132097211952    0.6703763993108217 S
   0.2855242912561395    0.7527023809281540    0.7527017300733159 S
   0.3601486552225296    0.1934478801828511    0.1934469727090349 S
   0.7775130810377225    0.6703739168855295    0.2746142853537661 S
