Te4 Mo4 Se4
1.0
   3.4444528435475932   -0.0000002657315101   -0.0000013359374925
  -1.7222267125949706    2.9829743450216757   -0.0000095595620894
  -0.0000103288037703   -0.0001395864367940   35.6557926210290006
Te Mo Se
4 4 4
direct
   0.3333477584626262    0.6666877737305994    0.7107491952624639 Te
   0.6666497974663516    0.3333107545603299    0.0407087746130978 Te
   0.6666517877140711    0.3333137323386016    0.1449367144412002 Te
   0.3333457682149065    0.6666847959523287    0.6065212554343549 Te
   0.3333163422632119    0.6666429702307308    0.0927781024549225 Mo
   0.3333554267447406    0.6667159643884087    0.4664612242643756 Mo
   0.6666421291842363    0.3332825639025216    0.2849967456111789 Mo
   0.6666812136657655    0.3333555580601988    0.6586798674206322 Mo
   0.3333157107717289    0.6666294681119632    0.3308547955628557 Se
   0.6666818451589308    0.3333680601804259    0.4206031743127112 Se
   0.6666899512393500    0.3333830355300884    0.5123536201085936 Se
   0.3333076046896270    0.6666154927608422    0.2391043497669607 Se
