Er1 In1 Pt4
1.0
  -3.8123812963940580   -3.8123812963940580    0.0000000000000000
  -3.8123812963940580    0.0000000000000000   -3.8123812963940580
  -0.0000000000000000   -3.8123812963940580   -3.8123812963940580
Er In Pt
1 1 4
direct
   0.0000000000000000    0.0000000000000000    0.0000000000000000 Er
   0.7499997449637200    0.7499997449637200    0.7499997449637200 In
   0.8742279716042657    0.3752571160996625    0.3752571160996624 Pt
   0.3752571160996626    0.8742279716042657    0.3752571160996623 Pt
   0.3752571160996624    0.3752571160996624    0.8742279716042658 Pt
   0.3752571160996624    0.3752571160996624    0.3752571160996624 Pt
