K3 Tl1 I6
1.0
   7.6279273707760265   -0.0000000041523102    4.4039862119685971
   2.5426424530105067    7.1916789826424061    4.4039862119685971
  -0.0000000117445054   -0.0000000083046195    8.8079714645952745
K Tl I
3 1 6
direct
   0.7499999826817536    0.7500001073964646    0.7500004753531997 K
   0.2499999942272512    0.2500000357988215    0.2500001584510665 K
   0.4999999884545024    0.5000000715976430    0.5000003169021331 K
   0.0000000000000000    0.0000000000000000    0.0000000000000000 Tl
   0.7606306078161179    0.2393696008049359    0.2393698521817014 I
   0.2393695613014276    0.2393696011055284    0.7606304982097731 I
   0.2393693690928870    0.7606305423903502    0.7606307816225649 I
   0.2393693684917010    0.7606305417891643    0.2393700013518118 I
   0.7606306084173039    0.2393696014061218    0.7606306324524545 I
   0.7606304156075774    0.7606305420897577    0.2393701355944933 I
