In1 O2 F1
1.0
   3.5441272922044496   -0.1359796748474677   -0.1841585416357704
  -0.2106456105679810    3.6774020444857363    0.3949862096533652
  -0.1873137900052191   -1.1880690717314397    3.8934858575470295
In O F
1 2 1
direct
   0.0311017743681987    0.0523862443915488   -0.0470614177312083 In
   0.3465094916444961    0.5863325734097097    0.1063714891120469 O
   0.4913136401286185    0.7313747013446860    0.8027811566779008 O
  -0.0953426767885877    0.1712945146192984    0.4614911413627610 F
