Ba4 Pd4 Cl16
1.0
   6.8825653124791790    0.0000000000000000    0.0000000000000000
   0.0000000000000000    7.4877388235149098    0.0000000000000000
   0.0000000000000000    0.0000000000000000   12.6047656042319964
Ba Pd Cl
4 4 16
direct
   0.5000003405358764    0.7500001178411585    0.1478485434278198 Ba
   0.0000000000000000    0.2500000392803862    0.3521516309414680 Ba
   0.5000003405358764    0.2500000392803862    0.8521518053107557 Ba
   0.0000000000000000    0.7500001178411585    0.6478487177971078 Ba
   0.0000000000000000    0.5000000785607723    0.0000000000000000 Pd
   0.5000003405358764    0.5000000785607723    0.5000001743692878 Pd
   0.5000003405358764    0.0000000000000000    0.5000001743692878 Pd
   0.0000000000000000    0.0000000000000000    0.0000000000000000 Pd
   0.7052447831176806    0.8919647928436139    0.9353568201665221 Cl
   0.2052444425818035    0.1080353642779310    0.5646437029413414 Cl
   0.2052444425818035    0.6080354428387030    0.4353566457972341 Cl
   0.7052447831176806    0.3919647142828415    0.0646435285720537 Cl
   0.2947558979540729    0.1080353642779310    0.0646435285720537 Cl
   0.7947562384899487    0.8919647928436139    0.4353566457972341 Cl
   0.8904840638239407    0.9678201182784423    0.1738366289597628 Cl
   0.1095166172478117    0.0321800388431023    0.8261637197788125 Cl
   0.6095169577836885    0.4678200397176698    0.3261635454095250 Cl
   0.1095166172478117    0.5321801174038747    0.1738366289597628 Cl
   0.2947558979540729    0.6080354428387030    0.9353568201665221 Cl
   0.6095169577836885    0.9678201182784423    0.6738368033290509 Cl
   0.3904837232880646    0.5321801174038747    0.6738368033290509 Cl
   0.8904840638239407    0.4678200397176698    0.8261637197788125 Cl
   0.3904837232880646    0.0321800388431023    0.3261635454095250 Cl
   0.7947562384899487    0.3919647142828415    0.5646437029413414 Cl
