Ce6 Al2
1.0
   3.3690097403089165   -5.8352960414094754    0.0000000000000000
   3.3701583999388700    5.8359592203560409   -0.0000000000000000
   0.0000000000000000   -0.0000000000000000    5.2194488727139969
Ce Al
6 2
direct
   0.6386950110707851    0.8195523335943028    0.2500000539944940 Ce
   0.1808578544750222    0.8195524712128439    0.2500000539944940 Ce
   0.1806399275637439    0.3612796509625581    0.2500000539944940 Ce
   0.3613055373270210    0.1804476700241215    0.7500001619834820 Ce
   0.8191426939227837    0.1804475324055805    0.7500001619834820 Ce
   0.8193606208340618    0.6387203526558666    0.7500001619834820 Ce
   0.6667323267640498    0.3334639370211555    0.2500000539944940 Al
   0.3332682216337559    0.6665360665972687    0.7500001619834820 Al
