Sr2 Cu1 O3
1.0
   3.4014871513565494   -0.0000000008020714   -0.8944240414873886
  -0.2960078919010889    3.7802503803637371   -1.1257163865551547
  -0.0106679858396526   -0.0229953651475078    6.8745587861754851
Sr Cu O
2 1 3
direct
   0.6470634707463072    0.1470628523241379    0.2941267770435914 Sr
   0.3529360392358883    0.8529358209425749    0.7058731807803129 Sr
  -0.0000003154022158    0.4999999477903427   -0.0000003123980870 Cu
   0.0000000000000000    0.0000000000000000    0.0000000000000000 O
   0.8448206120697144    0.3448197238615636    0.6896414989260394 O
   0.1551788979124814    0.6551789494051495    0.3103584588978653 O
