Li3 Fe2 O6
1.0
   4.8896651233023807   -0.0048157324678918    0.0028123840671599
  -2.4310269556626123    4.2424910843634738    0.0004334002544322
  -0.8440045858499639   -1.4520558879658059    4.6328001302225514
Li Fe O
3 2 6
direct
   0.9993817012411078    0.4951982288856341    0.0005578857920194 Li
   0.6506887547111452    0.8443729529454437    0.0010675990620729 Li
   0.3485449650918286    0.1465061458662240    0.0010713154272313 Li
   0.8322379586447471    0.6632556096659167    0.5008958678985987 Fe
   0.1674281244144311    0.3280630872796983    0.5008973065235258 Fe
   0.7913702879497212    0.2871916400266028    0.2708165727410904 O
   0.2082758748932249    0.7040984884266703    0.7310129614773088 O
   0.4226465063052749    0.5480538368960687    0.2742875719696062 O
   0.9474513070601509    0.0728636393263854    0.7275050646095613 O
   0.5770408836674635    0.4432733867736856    0.7275011595792635 O
   0.0522298915730276    0.9184612057919868    0.2742784972755671 O
