Y2 Ti2 Ge2
1.0
   3.9033237807104384    0.0000000013490148   -1.0011689393849559
  -0.2567914133044224    3.8948672865696587   -1.0011689401244843
   0.0283058464427105    0.0302334203664626    8.2200148593100302
Y Ti Ge
2 2 2
direct
   0.6741555081985777    0.6741556992323491    0.3483107031749498 Y
   0.3258449437652246    0.3258441252465981    0.6516884813721817 Y
   0.0000002039330736    0.5000003483124451    0.0000000027923675 Ti
   0.4999995166518976    0.0000000007838356   -0.0000001232888133 Ti
   0.1235231406738719    0.1235228303852966    0.2470457482933908 Ge
   0.8764773112899304    0.8764769940936507    0.7529534362537408 Ge
