In2 Sb4 S8 Cl2
1.0
   3.8447964559839551    0.0000820496971155    0.6639440925871727
   1.2285246647754211    9.1280253234770541    4.3505581617638560
   0.0302868891710048   -0.0022369421508795   11.2869128058658088
In Sb S Cl
2 4 8 2
direct
   0.8379716838677730    0.8875818988619264    0.4364916143609733 In
   0.1620288524952210    0.1124180538003502    0.5635079240082467 In
   0.5493834557653736    0.6767435934844073    0.2245559972815939 Sb
   0.2030744491969521    0.6925917675630393    0.9010627236613106 Sb
   0.4506170805976204    0.3232563591778693    0.7754435410876259 Sb
   0.7969260871660424    0.3074081850992370    0.0989368147079023 Sb
   0.2859380167956679    0.0810731355495092    0.3470191297514744 S
   0.1809555103504950    0.5019730228259924    0.1361251549625438 S
   0.9638655200014032    0.8549172412294102    0.2173655693779883 S
   0.5982677425114087    0.8245557913796147    0.9788131971676006 S
   0.0361350163615915    0.1450827114328664    0.7826339689912325 S
   0.7140625195673265    0.9189268171127672    0.6529804086177456 S
   0.8190450260124994    0.4980269298362840    0.8638743834066764 S
   0.4017327938515858    0.1754441612826620    0.0211863412016196 S
   0.6036760801075894    0.3215800480869130    0.4709568331778919 Cl
   0.3963244562554051    0.6784199045753635    0.5290427051913287 Cl
