Na1 Hf1 F2
1.0
   3.1114113437393360    0.0000000000000000    0.0000000000000000
   0.0000000000000000    3.1114113437393360    0.0000000000000000
  -0.0000000000000000    0.0000000000000000    6.0462562747233193
Na Hf F
1 1 2
direct
   0.5000004405239141    0.5000004405239141    0.5194626696071756 Na
   0.0000000000000000    0.0000000000000000    0.0009336062340579 Hf
   0.0000000000000000    0.0000000000000000    0.3515058896996085 F
   0.5000004405239141    0.5000004405239141    0.1380993287613032 F
