Zr1 As5
1.0
   1.9161092095562766   -3.3187955500174393   -0.0000000000000000
   1.9161092095562766    3.3187955500174393    0.0000000000000000
   0.0000000000000000    0.0000000000000000    9.9400969339176566
Zr As
1 5
direct
   0.3333333161222652    0.6666670964031376    0.9166535074938097 Zr
   0.0000000000000000    0.0000000000000000    0.7470566230146616 As
   0.0000000000000000    0.0000000000000000    0.2603862023823001 As
   0.6666670964031377    0.3333333161222650    0.0864856581050066 As
   0.6666670964031377    0.3333333161222650    0.5727247928218238 As
   0.3333333161222652    0.6666670964031376    0.4166941415503381 As
