Er1 Sn1 Pd2
1.0
   4.1315320908707447   -0.0000000008511151    2.3853408724076495
   1.3771776953520369    3.8952452830827222    2.3853408724076495
   0.0000000000000000   -0.0000000000000000    4.7706817448152989
Er Sn Pd
1 1 2
direct
   0.4999998240112398    0.5000006055803998    0.4999994194670816 Er
   0.0000000000000000    0.0000000000000000    0.0000000000000000 Sn
   0.7499997360168597    0.7500009083705997    0.7499991292006225 Pd
   0.2499999120056199    0.2500003027901999    0.2499997097335408 Pd
