Te2 Mo1 W3 Se6
1.0
   3.3841349032390191    0.0000010024457353   -0.0000000004789866
  -1.6920664494049538    2.9307345431546512   -0.0000013142746667
   0.0000019961008135   -0.0000156503603534   38.4198954878381187
Te Mo W Se
2 1 3 6
direct
   0.6666440983795572    0.3332903239323408    0.4204592257194145 Te
   0.6666427602708097    0.3332877637797264    0.5188533787269061 Te
   0.6666873774536684    0.3333777187866307    0.2817762084218421 Mo
   0.3333096641749517    0.6666208038425622    0.0939284126301297 W
   0.3333075786336440    0.6666180759838692    0.4696513029655126 W
   0.6666864784205632    0.3333773640108092    0.6575483378524843 W
   0.3333506979318317    0.6667051440384245    0.3248253413833023 Se
   0.3333548883128132    0.6667139681860983    0.7006493878364787 Se
   0.6666426257626300    0.3332869426303103    0.0508218342226975 Se
   0.6666427127755509    0.3332872184893380    0.1371433364171339 Se
   0.3333539653770851    0.6667115774152652    0.2387544932239623 Se
   0.3333504821160584    0.6667050539412587    0.6143384754460527 Se
