Li1 Ca2 Ge1
1.0
   4.4573658766064170   -0.0000000009618820    2.5734612068899483
   1.4857889558162545    4.2024454314921105    2.5734612068899492
   0.0000000037164266    0.0000000026279107    5.1469234009058180
Li Ca Ge
1 2 1
direct
   0.5000003981318166    0.5000005433552845    0.4999989643864938 Li
   0.2500001990659083    0.2500002716776423    0.2499994821932469 Ca
   0.7500005971977249    0.7500008150329268    0.7499984465797406 Ca
   0.0000000000000000    0.0000000000000000    0.0000000000000000 Ge
