K2 Li1 La1 Cl6
1.0
   6.4196449784915508   -0.0000000000000000    3.7063837564339273
   2.1398816594971835    6.0524993294687253    3.7063837564339273
  -0.0000000000000000   -0.0000000000000000    7.4127675128678527
K Li La Cl
2 1 1 6
direct
   0.7499991967946790    0.7500000830893865    0.7499998515701762 K
   0.2499997322648930    0.2500000276964622    0.2499999505233920 K
   0.4999994645297860    0.5000000553929244    0.4999999010467840 Li
   0.0000000000000000    0.0000000000000000    0.0000000000000000 La
   0.7383699805970083    0.2616293984812831    0.2616292609873182 Cl
   0.2616290893069824    0.2616293984812831    0.7383707386816666 Cl
   0.2616289484625636    0.7383707123045654    0.7383705411062498 Cl
   0.2616289484625636    0.7383707123045654    0.2616291201428995 Cl
   0.7383699805970083    0.2616293984812831    0.7383706819506685 Cl
   0.7383698397525895    0.7383707123045654    0.2616290634119013 Cl
