Ca2 V2 Bi2 O12
1.0
   0.0000000000000000    7.0195105223149721    0.1509856157141941
   5.3396485758771304    0.0000000000000000    0.0000000000000000
   0.0000000000000000   -1.6915303585843808   -7.3134188841558272
Ca V Bi O
2 2 2 12
direct
   0.7425358763330531    0.7463020920980311    0.9450724363922126 Ca
   0.2574639919923691    0.2463019587444174    0.0549271139791456 Ca
   0.2168353912576877    0.7092884450212522    0.7824839629989983 V
   0.7831644770677342    0.2092883116676383    0.2175155873723599 V
   0.3955930906038836    0.2361561207663549    0.5674917330681893 Bi
   0.6044067777215383    0.7361562541199691    0.4325078173031687 Bi
   0.7685122822947621    0.5441592614732711    0.2452562608725886 O
   0.9562557392151815    0.1370788038143890    0.1037364198541783 O
   0.6556873704014377    0.4714770962683643    0.6577411603125995 O
   0.6013526803541962    0.9513179054474481    0.6806126755360735 O
   0.0437441291102403    0.6370789371680032    0.8962631305171800 O
   0.1798410045399799    0.5258277098465016    0.5799687031602430 O
   0.8201588637854408    0.0258275764928876    0.4200308472111154 O
   0.5782973682674467    0.0848597405007210    0.0777555478613194 O
   0.2314875860306595    0.0441591281196567    0.7547432894987698 O
   0.3443124979239839    0.9714772296219770    0.3422583900587576 O
   0.3986471879712254    0.4513177720938348    0.3193868748352841 O
   0.4217025000579752    0.5848598738543346    0.9222440025100387 O
