K4 Zn2 Br8
1.0
   0.0000000000000000    7.2385632115446974   -0.0475013099597944
   7.3658341010433857    0.0000000000000000    0.0000000000000000
   0.0000000000000000   -2.9083036248832235   -8.4988672834308296
K Zn Br
4 2 8
direct
   0.2306123217561989    0.7499995824257651    0.4293800245660903 K
   0.7693878015658187    0.2499998608085884    0.5706201402501581 K
   0.2830720709934816    0.7499995824257651    0.9486627159962270 K
   0.7169280523285357    0.2499998608085884    0.0513374488200213 K
   0.7180922435213909    0.7499995824257651    0.7967280839705332 Zn
   0.2819078798006260    0.2499998608085884    0.2032720808457152 Zn
   0.8998512691551810    0.7499995824257651    0.0755901422451000 Br
   0.1001488541668362    0.2499998608085884    0.9244100225711480 Br
   0.9168567064279660    0.7499995824257651    0.6248307756049422 Br
   0.0831434168940516    0.2499998608085884    0.3751693892113060 Br
   0.4934395865033994    0.0057154127288680    0.7365699285170462 Br
   0.5065605368186179    0.5057151343460446    0.2634302362992020 Br
   0.5065605368186179    0.9942840305054856    0.2634302362992020 Br
   0.4934395865033994    0.4942843088883087    0.7365699285170462 Br
