Mo12 P4
1.0
   4.5802228169104682   -0.0000000000675564    1.5962056892048817
   2.2901114085225687    6.9726743459160838    0.7981023440346259
  -0.0045118261457930   -0.0000000003120717    7.3823944606808833
Mo P
12 4
direct
   0.4676875549944606    0.0000000000313058    0.5980161867900752 Mo
   0.9342955596915811    0.5980158916574060    0.0000005195753537 Mo
   0.5323120702565509    0.4019834850785675    0.0000002806505092 Mo
   0.0657039882969543    0.0000000000186304    0.4019835052285652 Mo
   0.3543383061680835    0.6456613332336496    0.6456613818638445 Mo
   0.0000001435248239    0.6456613332171934    0.3543378577322384 Mo
   0.0000002583443768    0.3543380435493388    0.6456612010044143 Mo
   0.6456614813862899    0.3543380435425714    0.3543383936267335 Mo
   0.6758991730044183    0.0000000000148244    0.1847705033023836 Mo
   0.1393302540471427    0.1847700312322380    0.0000000534935384 Mo
   0.3241002893735535    0.8152293454940339    0.0000000277008126 Mo
   0.8606694568144321    0.0000000000448133    0.8152299077477685 Mo
   0.2082539192327406    0.2917458882536346    0.2917459447344760 P
   0.4999999758564930    0.2917458882751104    0.7082537261775668 P
   0.4999998116978803    0.7082534885011106    0.2917460493130113 P
   0.7917458683216331    0.7082534885225860    0.7082538307561018 P
