Sr1 Sn1 O3
1.0
   4.0960139396800130   -0.0000000000000000    0.0000000000000000
   0.0000000000000000    4.0960139396800130    0.0000000000000000
  -0.0000000000000000   -0.0000000000000000    4.0960139396800130
Sr Sn O
1 1 3
direct
   0.4999995190836663    0.4999995190836663    0.4999995190836663 Sr
   0.0000000000000000    0.0000000000000000    0.0000000000000000 Sn
   0.0000000000000000    0.4999995190836663    0.0000000000000000 O
   0.0000000000000000    0.0000000000000000    0.4999995190836663 O
   0.4999995190836663    0.0000000000000000    0.0000000000000000 O
