Zr4 Ge4
1.0
   3.9399044069258311    0.0000000000000000    0.0000000000000000
   0.0000000000000000    5.4213701842425666    0.0000000000000000
   0.0000000000000000    0.0000000000000000    7.1163453767611777
Zr Ge
4 4
direct
   0.7499991610978258    0.8660426631708351    0.1778614488961530 Zr
   0.2499997203659420    0.3660426801630863    0.3221388759362276 Zr
   0.2499997203659420    0.1339573028446625    0.8221392007686087 Zr
   0.7499991610978258    0.6339572858524115    0.6778617737285336 Zr
   0.7499991610978258    0.3434429780149433    0.0488650929245006 Ge
   0.2499997203659420    0.8434429610226920    0.4511352319078802 Ge
   0.2499997203659420    0.6565569880005547    0.9511355567402610 Ge
   0.7499991610978258    0.1565570049928056    0.5488654177568814 Ge
