Dy1 Cr2 Si2
1.0
   3.8501177514256040    0.0000000000000001    0.0000000012128427
   0.0000000000000001    3.8501177514256040    0.0000000012128427
  -1.9250583741417335   -1.9250583741417335    5.3598036900635178
Dy Cr Si
1 2 2
direct
   0.0000000000000000    0.0000000000000000    0.0000000000000000 Dy
   0.2499997626323195    0.7500000546460370    0.4999996555387645 Cr
   0.7500000546460370    0.2499997626323195    0.4999996555387645 Cr
   0.3844846882859363    0.3844846882859363    0.7689695769256776 Si
   0.6155151289924201    0.6155151289924201    0.2310297341518514 Si
