Ce1 Si2 Re4
1.0
   4.0837936755066027    0.0000000000000000    0.0000000000000000
   0.0000000000000000    3.9861020607097251   -1.1863501303698334
   0.0000000000000000    0.0066967634367965    7.3122702305274130
Ce Si Re
1 2 4
direct
   0.0000000000000000    0.0000000000000000    0.0000000000000000 Ce
   0.4999995499886998    0.5867825455037765    0.1735653944250893 Si
   0.4999995499886998    0.4132177494271480    0.8264346397276093 Si
   0.4999995499886998    0.8146184215424604    0.6292366728060440 Re
   0.0000000000000000    0.6948536729038881    0.3897074245332027 Re
   0.4999995499886998    0.1853818733884637    0.3707633613466546 Re
   0.0000000000000000    0.3051466220270365    0.6102926096194953 Re
