Ba1 Cd2 Bi1
1.0
   4.2379375618914752    0.0000000000000000   -0.0000000000000000
  -0.0000000000000000    4.2379375618914752   -0.0000000000000000
  -0.0000000000000000   -0.0000000000000000    7.2372043404177715
Ba Cd Bi
1 2 1
direct
   0.5000002876527190    0.5000002876527190    0.0000000000000000 Ba
   0.0000000000000000    0.0000000000000000    0.7121886383971966 Cd
   0.0000000000000000    0.0000000000000000    0.2878107618660032 Cd
   0.5000002876527190    0.5000002876527190    0.4999997001315999 Bi
