Lu2 Ni1 Sn6
1.0
   4.2643524021856498    0.0000000000000000   -0.8232773948839094
   0.0000000000000000    4.4022397619494127    0.0000000000000000
  -0.0057680521321601    0.0000000000000000   11.4258464640429835
Lu Ni Sn
2 1 6
direct
   0.1786134609080543    0.0000000000000000    0.3572265000829267 Lu
   0.8213855190056286    0.0000000000000000    0.6427735078838281 Lu
   0.4999997181594270    0.5000000270374401   -0.0000001343087379 Ni
   0.7042230004031711    0.5000000270374401    0.4084470913594410 Sn
   0.5706240242604119    0.0000000000000000    0.1412497065433441 Sn
   0.4293749556532708    0.0000000000000000    0.8587503014234112 Sn
   0.9282654790148570    0.5000000270374401    0.8565327739292675 Sn
   0.0717335008988259    0.5000000270374401    0.1434672340374876 Sn
   0.2957759795105117    0.5000000270374401    0.5915529166073142 Sn
