Li1 Be2 Ge1
1.0
  -1.8277991034025325    1.8277991034025325    3.4706282125464845
   1.8277991034025325   -1.8277991034025325    3.4706282125464845
   1.8277991034025325    1.8277991034025325   -3.4706282125464845
Li Be Ge
1 2 1
direct
   0.7500003740227240    0.2500001287557616    0.5000002452669623 Li
   0.0000000000000000    0.0000000000000000    0.0000000000000000 Be
   0.5000002575115232    0.5000002575115232    0.0000000000000000 Be
   0.2500001287557616    0.7500003740227239    0.5000002452669623 Ge
