Lu1 Si2 Ni2
1.0
   3.6755519668959167    0.0000000008306714   -1.3980251208070340
  -0.5317495869536597    3.6368840701462641   -1.3980251207593759
  -0.0131435720377936   -0.0152046591894090    5.4961595445579743
Lu Si Ni
1 2 2
direct
   0.0000000000000000    0.0000000000000000    0.0000000000000000 Lu
   0.6251393287906042    0.6251391660662952    0.2502778574566570 Si
   0.3748610123903275    0.3748609891204626    0.7497205761664947 Si
   0.7500001055993407    0.2500003575473956    0.4999992714925643 Ni
   0.2500002355815910    0.7499997976393621    0.4999991621305873 Ni
