V1 Mo2 As1
1.0
   0.0000000000000000    3.0983089061470315    3.0983089061470315
   3.0983089061470315    0.0000000000000000    3.0983089061470315
   3.0983089061470315    3.0983089061470315    0.0000000000000000
V Mo As
1 2 1
direct
   0.7500002647862920    0.7500002647862920    0.7500002647862920 V
   0.0000000000000000    0.0000000000000000    0.0000000000000000 Mo
   0.2500000882620974    0.2500000882620973    0.2500000882620973 Mo
   0.5000001765241947    0.5000001765241946    0.5000001765241946 As
