Ta2 Tl2 Ge6 O18
1.0
   3.5495441805232919   -6.1479913243479682    0.0000000000000000
   3.5495441805232919    6.1479913243479682   -0.0000000000000000
  -0.0000000000000000   -0.0000000000000000   10.2987504421866269
Ta Tl Ge O
2 2 6 18
direct
   0.3333324470202803    0.6666663752163001    0.0000000000000000 Ta
   0.3333324470202803    0.6666663752163001    0.4999999785320253 Ta
   0.6666663752163002    0.3333324470202800    0.0000000000000000 Tl
   0.6666663752163002    0.3333324470202800    0.4999999785320253 Tl
   0.0722980403800614    0.7828803728529555    0.7499999677980380 Ge
   0.7105815441699468    0.9277005444139127    0.7499999677980380 Ge
   0.2171187565106072    0.2894172083822572    0.7499999677980380 Ge
   0.2171184493836251    0.9277007818565189    0.2499999892660127 Ge
   0.0722982778226674    0.2894172780666334    0.2499999892660127 Ge
   0.7105816138543233    0.7828800657259730    0.2499999892660127 Ge
   0.5594982965716843    0.6576580699151969    0.1095816511755386 O
   0.0981594096624332    0.6576582919008693    0.6095816297075638 O
   0.3423407523213831    0.4405005256648958    0.6095816297075638 O
   0.0981594096624332    0.6576582919008693    0.8904183058885121 O
   0.3423407523213831    0.4405005256648958    0.8904183058885121 O
   0.5594981790767997    0.9018393080833601    0.8904183058885121 O
   0.3423405303357111    0.9018394125741471    0.1095816511755386 O
   0.5594982965716843    0.6576580699151969    0.3904183273564870 O
   0.7997899682530225    0.7331170591256565    0.7499999677980380 O
   0.0981595141532200    0.4405006431597812    0.1095816511755386 O
   0.2668818273651496    0.0666737486276121    0.7499999677980380 O
   0.9333253300311725    0.2002085333071291    0.7499999677980380 O
   0.0981595141532200    0.4405006431597812    0.3904183273564870 O
   0.7997902889294510    0.0666734922054086    0.2499999892660127 O
   0.9333250736089685    0.7331169948714307    0.2499999892660127 O
   0.2668817631109243    0.2002088539835581    0.2499999892660127 O
   0.3423405303357111    0.9018394125741471    0.3904183273564870 O
   0.5594981790767997    0.9018393080833601    0.6095816297075638 O
