Co1 I2 N6
1.0
  -3.8323165066863942   -3.8323165066863942    0.0000000000000000
  -3.8323165066863942    0.0000000000000000   -3.8323165066863942
  -0.0000000000000000   -3.8323165066863942   -3.8323165066863942
Co I N
1 2 6
direct
   0.0000000000000000    0.0000000000000000    0.0000000000000000 Co
   0.2500002278852491    0.2500002278852491    0.2500002278852490 I
   0.7500006836557471    0.7500006836557471    0.7500006836557472 I
   0.7626209377260765    0.2373799738149198    0.2373799738149197 N
   0.7626209377260763    0.2373799738149198    0.7626209377260763 N
   0.7626209377260763    0.7626209377260763    0.2373799738149198 N
   0.2373799738149199    0.7626209377260764    0.7626209377260763 N
   0.2373799738149198    0.7626209377260764    0.2373799738149197 N
   0.2373799738149198    0.2373799738149198    0.7626209377260764 N
