Dy2 Mg2 Mn2 S8
1.0
   6.5871065043101122   -0.1636366753996944    4.0681593103406888
   2.1727110257942490    6.0666579731896180    3.7167123472179817
   0.0633764001794389   -0.1258708747154304    7.6423368796784255
Dy Mg Mn S
2 2 2 8
direct
   0.5000007383627489    0.4999999642812749    0.4999984055823236 Dy
  -0.0000004752653252    0.4999994646262357    0.5000009482732637 Dy
   0.8715457173110149    0.8784539315356130    0.8784583948292453 Mg
   0.1284572782506687    0.1215446992429634    0.1215416862780174 Mg
   0.5000007670180066    0.4999990676954091    0.0000002314665436 Mn
   0.5000034064224524   -0.0000023442172333    0.5000011538990862 Mn
   0.7163343912663634    0.7459851353594411    0.7684656435054890 S
   0.2593655660977769    0.2342503979746687    0.7257540395969168 S
   0.2806312170514172    0.7257435035834722    0.2342539189130180 S
   0.7307841721143720    0.2315346466726579    0.2540145760309777 S
   0.7193684545839151    0.2742535279027520    0.7657471624170802 S
   0.2692184381462086    0.7684658028183557    0.7459821361097319 S
   0.2836658572312519    0.2540165436578178    0.2315325747385252 S
   0.7406355864719811    0.7657483320813738    0.2742472762424439 S
