Tb2 Sn2 Ge2
1.0
  -0.0000000000000000   -0.0000000000000000   -4.0780418368969515
  -4.2874646020071969    0.0000000000317007    0.0000000000000000
   2.1437328009759513    8.2428999431768322    0.0000000000000000
Tb Sn Ge
2 2 2
direct
   0.7499996621729818    0.0948816929738347    0.1897623416913817 Tb
   0.2499998873909939    0.9051178904019732    0.8102376651983619 Tb
   0.7499996621729818    0.7445606325966269    0.4891232244796433 Sn
   0.2499998873909939    0.2554389507791809    0.5108767824101004 Sn
   0.7499996621729818    0.4470943742129669    0.8941895398773416 Ge
   0.2499998873909939    0.5529052091628411    0.1058104670124023 Ge
