Hf1 Cr1 Cu1 S4
1.0
   6.1066914783012365    0.0250758281380178    2.8767191295979719
   5.0834129778956028    3.3839654407922519    2.8767191295979728
  -0.0007619676469871   -0.0002321318057697    5.9265356005791903
Hf Cr Cu S
1 1 1 4
direct
   0.2455696617400927    0.2455716339630592    0.7453685271842827 Hf
   0.7564532618493284    0.7564576389922172    0.2622266719490030 Cr
   0.4984223285855701    0.4984254696645145    0.4805962645248640 Cu
   0.3755688342980701    0.3755711307592715    0.2778309254359067 S
   0.6196120931925914    0.6196160850671717    0.7017143773501344 S
   0.8713799577701035    0.8713854265107426    0.8129874052348315 S
   0.1329830169153037    0.1329839310027421    0.2192792262310437 S
