Ba4 Cd1 Se1
1.0
   0.0000000000000000    4.9979381046981377    4.9979381046981377
   4.9979381046981377    0.0000000000000000    4.9979381046981377
   4.9979381046981377    4.9979381046981377    0.0000000000000000
Ba Cd Se
4 1 1
direct
   0.1211656273342970    0.6262780436996135    0.6262780436996135 Ba
   0.6262780436996136    0.6262780436996135    0.6262780436996135 Ba
   0.6262780436996136    0.1211656273342970    0.6262780436996135 Ba
   0.6262780436996135    0.6262780436996135    0.1211656273342970 Ba
   0.2500000948041884    0.2500000948041884    0.2500000948041884 Cd
   0.0000000000000000    0.0000000000000000    0.0000000000000000 Se
