Ba2 Ho1 Mo1 O6
1.0
   5.1532403052656965   -0.0000000000000000    2.9752246774439803
   1.7177467684218992    4.8585215532496111    2.9752246774439803
  -0.0000000000000000   -0.0000000000000000    5.9504493548879589
Ba Ho Mo O
2 1 1 6
direct
   0.2500001686060064    0.2499999200760152    0.2499995897296534 Ba
   0.7500005058180190    0.7499997602280456    0.7499987691889601 Ba
   0.5000003372120128    0.4999998401520304    0.4999991794593069 Ho
   0.0000000000000000    0.0000000000000000    0.0000000000000000 Mo
   0.7649678253284727    0.2350322266519736    0.2350315152157423 O
   0.2350328490955527    0.7649674536520872    0.7649668437028716 O
   0.2350328490955527    0.7649674536520872    0.2350313898321456 O
   0.7649678253284727    0.2350322266519736    0.7649669690864683 O
   0.2350324603022772    0.2350322266519736    0.7649673699544365 O
   0.7649682141217483    0.7649674536520872    0.2350309889641773 O
