La2 Ge4 Pt4
1.0
   4.4698298123828337    0.0000000000000000    0.0000000000000000
   0.0000000000000000    4.4855320303352135    0.0006626295512075
   0.0000000000000000    0.0891822250059848    9.9440321524911042
La Ge Pt
2 4 4
direct
   0.2457421323784496    0.7484471264587781    0.7465624573994026 La
   0.7457421533655093    0.2515519344197524    0.2534370617674751 La
   0.2457050129529131    0.7741345840514917    0.1257889894153064 Ge
   0.7457050339399725    0.2258644768270391    0.8742105297515715 Ge
   0.2456164381764970    0.2518121616989786    0.4998552322556112 Ge
   0.7456164591635563    0.7481868991795526    0.5001442869112669 Ge
   0.2456269624729153    0.7537518551010869    0.3768400189219306 Pt
   0.7456269834599745    0.2462472057774441    0.6231595002449472 Pt
   0.2457095055802184    0.2799142196465205    0.9983680632473507 Pt
   0.7457095265672776    0.7200848412320099    0.0016314559195279 Pt
