Pr2 Al4 Ni2
1.0
   5.8990940893404247   -0.0305230187517398    0.0000000000000000
  -4.4689693470152596    3.8507867491992420   -0.0000000000000000
   0.0000000000000000    0.0000000000000000    6.9248165739475178
Pr Al Ni
2 4 2
direct
   0.5525445256094714    0.4474564695800727    0.2500001236874813 Pr
   0.4474559064925829    0.5525451619674436    0.7500003710624440 Pr
   0.8297255149344926    0.1702752869941611    0.0567763041017182 Al
   0.1702749171675615    0.8297263445533554    0.9432241906482071 Al
   0.1702749171675615    0.8297263445533554    0.5567765514766808 Al
   0.8297255149344926    0.1702752869941611    0.4432239432732444 Al
   0.2812745483144387    0.7187266360146323    0.2500001236874813 Ni
   0.7187258837876155    0.2812749955328843    0.7500003710624440 Ni
