Ba3 Te1
1.0
   8.2240885217567374    0.8607761512146435   -0.3093131006120148
  -3.3617866898810171   -7.5824167652373866    0.0953662790178544
   2.4405770002777287    0.2879061742119417   -3.9365024573420819
Ba Te
3 1
direct
   0.0223384599743498    0.0016755112613501    0.8825879350658840 Ba
   0.7023209648229785    0.3593496027029549    0.8801119764356765 Ba
   0.3446172777876954    0.6441177486767016    0.8803612237955728 Ba
   0.5223114737517659    0.0017370870716527    0.3813939272636092 Te
