V6 O10 F2
1.0
   4.6055851763456719   -0.0043058329593996    0.0000000000000003
  -0.1671091595251518    4.6025544956659896    0.0000000000000003
   0.0000000000000000    0.0000000000000000    8.7315839513058933
V O F
6 10 2
direct
   0.9882830800349288    0.0117170147790173    0.6525226120497361 V
   0.9882830800349288    0.0117170147790173    0.3474769354200109 V
   0.9828615775879490    0.0171385101508077   -0.0000000000000000 V
   0.4868802016631883    0.5131192388080708    0.4999997737348735 V
   0.5246716942134207    0.4753277955766358    0.8313652691244214 V
   0.5246716942134207    0.4753277955766358    0.1686342783453259 V
   0.1980722718020012    0.8019267917680373    0.4999997737348735 O
   0.7034476219315301    0.6962883952906035   -0.0000000000000000 O
   0.7008343874276909    0.7020672034782908    0.3305780730303146 O
   0.7008343874276909    0.7020672034782908    0.6694214744394317 O
   0.3037105317255199    0.2965523755797231   -0.0000000000000000 O
   0.8049556943819546    0.1950441611853911    0.8319757015802728 O
   0.2979317138232057    0.2991656088463615    0.6694214744394317 O
   0.8049556943819546    0.1950441611853911    0.1680238458894741 O
   0.7908637682584272    0.2091360689186199    0.4999997737348735 O
   0.2979317138232057    0.2991656088463615    0.3305780730303146 O
   0.2004089526577867    0.7995901139616760    0.8309821222635959 F
   0.2004089526577867    0.7995901139616760    0.1690174252061513 F
