Sc1 Tl1 Mo2 O8
1.0
   2.9184303303229622   -5.0548547063788227   -0.0000111000089029
   2.9184303303229622    5.0548547063788227    0.0000111000089029
   0.0000000000000000    0.0000245728617677    7.3515697127849151
Sc Tl Mo O
1 1 2 8
direct
   0.0000000000000000    0.0000000000000000    0.0000000000000000 Sc
   0.0000002261619272   -0.0000002261619272    0.5000000195349522 Tl
   0.3333342564500880    0.6666656303647666    0.7510050301610046 Mo
   0.6666660826886209    0.3333338041262335    0.2489950089088993 Mo
   0.3333291256061136    0.6666707612087400    0.5152917489793220 O
   0.6666712135325944    0.3333286732822593    0.4847082900905819 O
   0.1657300874454735    0.8342697993693799    0.8292330109756343 O
   0.1657317169626262    0.3314551535975702    0.8292264524703661 O
   0.6685447332172846    0.8342681698522275    0.8292264524703661 O
   0.8342702516932343    0.1657296351216192    0.1707670280942701 O
   0.3314556059214245    0.1657312646387718    0.1707735865995380 O
   0.8342686221760819    0.6685442808934302    0.1707735865995380 O
