Sc1 Si2 Tc1
1.0
  -8.7486098805558843   -5.1057283964012674   -2.5251862225739594
  -6.4001597608892462   -2.7060325918783534    1.2804779680303036
  -4.0626922149268445    0.4023022083260770    0.0588815341069070
Sc Si Tc
1 2 1
direct
   0.9999999116051265   -0.0000011463933663   -0.0000001276820586 Sc
   0.6714560029299388    0.1045659936162657    0.0003944144206540 Si
   0.3285449086760972   -0.1045671400107784   -0.0003945421028403 Si
   0.5000004558030178   -0.0000005731972563   -0.0000000638410931 Tc
