Al1 Cr1 W2 O8
1.0
  -4.8867458753339506   -0.0401979509323135    0.0373578659270635
   1.7599488631906490    5.3848123202379998    0.0248223292670892
  -0.4358317993138784   -2.5781123389082392   -5.8464962118799129
Al Cr W O
1 1 2 8
direct
   0.4595092290999636    0.0914481038645644    0.5968664349565426 Al
   0.9742933123041944    0.0947110515241339    0.2139388111233536 Cr
   0.7165365430034625    0.6005441750992397    0.4010984014931703 W
   0.2395178699145736    0.5948535610808088    0.0606813467929235 W
   0.6403529602701405    0.8877029752699954    0.6460692358642165 O
   0.7324667588302761    0.3210890691015539    0.4904680997555158 O
   0.6310208117147585    0.7933714273729771    0.2007739941486386 O
   0.8579885883048259    0.3907683918299600    0.0949365101904053 O
   0.1620514166985039    0.8392158261547179    0.9806158741228866 O
   0.3187555884759444    0.3362470021671822    0.8000956674712992 O
   0.3294740420770211    0.4044029444739744    0.2792658575331728 O
   0.1381300630607914    0.8417394073144605    0.4136913303008704 O
