Mo2 S4 I4
1.0
   6.6658120841608790   -0.0215889567474694    1.4246976984717019
  -3.2386624617095414    5.8261984343293962    1.4246976974177914
  -0.0023630564684153   -0.0040023404573510    7.2941795439261838
Mo S I
2 4 4
direct
   0.8785154706298197    0.1214841132736215    0.0000003968174765 Mo
   0.1214846301657217    0.8785159771748826    0.0000001970321169 Mo
   0.8880932488872217    0.8880931653504257    0.2965099901205829 S
   0.1119075066936510    0.1119073291378711    0.7034904594452160 S
   0.7031574805843605    0.7031574368052121    0.1455306602220114 S
   0.2968432749965121    0.2968430576830848    0.8544697893437875 S
   0.4499620763991491    0.0529268296930591    0.2363778800121468 I
   0.5500386791817241    0.9470736647952379    0.7636225695536524 I
   0.9470735956617977    0.5500382116059145    0.7636226743344134 I
   0.0529271599190751    0.4499622828823828    0.2363777752313852 I
