Cr4 Ag8 O16
1.0
   5.5757457106977464   -0.0000000000000000    0.0000000000000000
  -0.0000000000000000    6.9369871119233695    0.0000000000000000
   0.0000000000000000    0.0000000000000000   10.0374773078305690
Cr Ag O
4 8 16
direct
   0.0288569962454193    0.7500003122475850    0.3177954950254878 Cr
   0.5288573808847554    0.2500001040825284    0.1822046390803909 Cr
   0.9711437730332521    0.2500001040825284    0.6822047731862703 Cr
   0.4711433883939165    0.7500003122475850    0.8177956291313664 Cr
   0.9892559398553359    0.7500003122475850    0.6409004804595682 Ag
   0.4892555552160006    0.2500001040825284    0.8590999218580683 Ag
   0.5107452140626716    0.7500003122475850    0.1409003463536892 Ag
   0.0107448294233355    0.2500001040825284    0.3590997877521895 Ag
   0.5000003846393358    0.0000000000000000    0.5000001341058788 Ag
   0.0000000000000000    0.5000002081650567    0.0000000000000000 Ag
   0.5000003846393358    0.5000002081650567    0.5000001341058788 Ag
   0.0000000000000000    0.0000000000000000    0.0000000000000000 Ag
   0.1543486577803918    0.5532380828925852    0.3861560003137411 O
   0.3456517268589441    0.5532380828925852    0.8861561344196206 O
   0.8456521114982792    0.4467623334375278    0.6138442678980160 O
   0.3456517268589441    0.9467625416025848    0.8861561344196206 O
   0.8456521114982792    0.0532378747275287    0.6138442678980160 O
   0.6543490424197284    0.4467623334375278    0.1138441337921377 O
   0.7653799916343847    0.7500003122475850    0.8492061972965240 O
   0.5880269214992376    0.2500001040825284    0.3484706495598404 O
   0.2346207776442873    0.2500001040825284    0.1507940709152334 O
   0.7346211622836226    0.7500003122475850    0.3492060631906456 O
   0.4119738477794340    0.7500003122475850    0.6515296186519167 O
   0.9119742324187697    0.2500001040825284    0.8484707836657198 O
   0.1543486577803918    0.9467625416025848    0.3861560003137411 O
   0.0880265368599018    0.7500003122475850    0.1515294845460382 O
   0.2653796069950485    0.2500001040825284    0.6507942050211126 O
   0.6543490424197284    0.0532378747275287    0.1138441337921377 O
