Y4 Ge4 Pt4
1.0
   4.3771264069712181   -0.0000000000000000    0.0000000000000000
   0.0000000000000000    7.0325580964779517    0.0000000000000000
   0.0000000000000000    0.0000000000000000    7.6411679966845263
Y Ge Pt
4 4 4
direct
   0.2500002052161880    0.4977130992192620    0.7041436273632979 Y
   0.7500006156485639    0.0022870361171280    0.2041434962763049 Y
   0.7500006156485639    0.5022871714535178    0.2958566348106883 Y
   0.2500002052161880    0.9977132345556516    0.7958567658976815 Y
   0.2500002052161880    0.8090765137701275    0.4107591803428076 Ge
   0.7500006156485639    0.6909238922390420    0.9107593114298080 Ge
   0.7500006156485639    0.1909237569026525    0.5892410818311716 Ge
   0.2500002052161880    0.3090763784337373    0.0892409507441856 Ge
   0.2500002052161880    0.2060322623562763    0.4162628632672105 Pt
   0.7500006156485639    0.2939678729801135    0.9162629943542039 Pt
   0.7500006156485639    0.7939680083165037    0.5837373989067758 Pt
   0.2500002052161880    0.7060323976926658    0.0837372678197827 Pt
