Y1 S1 F2
1.0
   3.7822506062912922    0.0000000000000000    0.0000000000000000
   0.0000000000000000    3.7822506062912922   -0.0000000000000000
   0.0000000000000000   -0.0000000000000000    4.4394957984232288
Y S F
1 1 2
direct
   0.4999995868909974    0.4999995868909974    0.6546863749027043 Y
   0.0000000000000000    0.0000000000000000    0.8454464641732332 S
   0.0000000000000000    0.0000000000000000    0.3420385522207899 F
   0.4999995868909974    0.4999995868909974    0.1678307245800455 F
