Mg3 Al1
1.0
   6.1947164942566584   -0.0431814648354364    0.0000000000000000
  -1.5673773086737954    2.7147774345229627    0.0000000000000000
   0.0000000000000000    0.0000000000000000    5.0391354848339827
Mg Al
3 1
direct
   0.6674074915910441    0.6674081480100825    0.2500002240049921 Mg
   0.3290440818901193    0.3290444055165651    0.7500006720149762 Mg
   0.8371360341851818    0.3371362885253077    0.7500006720149762 Mg
   0.1664134106247466    0.6664141433111039    0.2500002240049921 Al
