Ba1 Ta2 Se1
1.0
  -2.1036330439720179    2.1036330439720179    5.8582818253555171
   2.1036330439720179   -2.1036330439720179    5.8582818253555171
   2.1036330439720179    2.1036330439720179   -5.8582818253555171
Ba Ta Se
1 2 1
direct
   0.2499999221036316    0.7499991986000656    0.4999992764964339 Ba
   0.0000000000000000    0.0000000000000000    0.0000000000000000 Ta
   0.4999998442072632    0.4999998442072632    0.0000000000000000 Ta
   0.7499991986000656    0.2499999221036316    0.4999992764964339 Se
