Ag2 N6
1.0
  -2.8775216876609915    2.8775216876609915    2.9356145293332556
   2.8775216876609915   -2.8775216876609915    2.9356145293332556
   2.8775216876609915    2.8775216876609915   -2.9356145293332556
Ag N
2 6
direct
   0.7499988428317451    0.7499988428317452    0.0000000000000001 Ag
   0.2499996142772484    0.2499996142772484    0.0000000000000000 Ag
   0.0000000000000000    0.4999997067509519    0.4999997067509520 N
   0.4999997067509520    0.0000000000000000    0.4999997067509520 N
   0.1457996284854955    0.6457993352364477    0.7915989637219573 N
   0.8541993068199529    0.3541996000690013    0.2084004497799468 N
   0.3542000782654565    0.1457996284854955    0.4999997067509520 N
   0.6457988570399926    0.8541993068199528    0.4999997067509520 N
