Ca1 Sb2 O6
1.0
   2.6586536138812646   -4.6049231389689540    0.0000282522684804
   2.6586366787119902    4.6049133614444218   -0.0000141261342401
   0.0000145123825242   -0.0000251361838803    5.0030910245103541
Ca Sb O
1 2 6
direct
   0.0000000000000000    0.0000000000000000    0.0000000000000000 Ca
   0.6666649481903365    0.3333300900941564    0.5000004054029595 Sb
   0.3333347004196737    0.6666684539846154    0.5000005638667865 Sb
  -0.0000000813849827    0.6327266695370267    0.2786615404714320 O
   0.3672723922277468    0.3672726983734471    0.2786614498498846 O
   0.6327242308895387   -0.0000005980281507    0.2786653438256715 O
   0.6327272563822633    0.6327258457053246    0.7213395194198614 O
   0.0000007504701257    0.3672722133606747    0.7213390794631619 O
   0.3672744281222372   -0.0000011175288240    0.7213348007319259 O
