Li1 Er3
1.0
   3.4203589878301779    0.0000000166201736    0.0000000000000002
  -1.7101800027124958    2.9621174797689864    0.0000000000000002
  -0.0000000000000000   -0.0000000000000000   10.9506045859445127
Li Er
1 3
direct
   0.0000000000000000    0.0000000000000000    0.0000000000000000 Li
   0.3333337151755549    0.6666672320101918    0.2446679621675652 Er
   0.0000000000000000    0.0000000000000000    0.4999997906077022 Er
   0.6666670041475588    0.3333336131996438    0.7553316190478393 Er
