Li4 B4 S8 O32
1.0
   7.5967267826338771    0.0000000000000000   -0.3547002534018980
   0.0000000000000000    9.2454000145353348    0.0000000000000000
  -0.0114030318218635    0.0000000000000000    8.5338320397167138
Li B S O
4 4 8 32
direct
   0.2378217281297499    0.1191060675610632    0.5340145452467759 Li
   0.2378215287487898    0.8808939308667676    0.0340146564673718 Li
   0.7203604831798390    0.6734484408998272    0.8691581340792486 Li
   0.7203602837988790    0.3265515575280033    0.3691582452998446 Li
   0.2172973403673202    0.4042352638819010    0.0193928063342971 B
   0.2172975397482803    0.5957647345459293    0.5193926951137020 B
   0.7334962031979676    0.8510864548171787    0.3972286787356174 B
   0.7334964025789277    0.1489135436106520    0.8972285675150214 B
   0.0872125501726495    0.8356141683605305    0.3719204342246204 S
   0.6434583484748602    0.9467170771117562    0.1016953435995879 S
   0.6434585478558204    0.0532829213160745    0.6016952323789929 S
   0.0872127495536097    0.1643858300672997    0.8719203230040259 S
   0.1198120800762532    0.3799872259001412    0.3203773484016361 S
   0.5738173350733226    0.6182833040140023    0.5168777542975768 S
   0.5738171356923624    0.3817166944138284    0.0168778655181723 S
   0.1198122794572133    0.6200127725276903    0.8203772371810408 S
   0.3918638717395416    0.5602127050013368    0.4620518737801097 O
   0.5903360730255370    0.2560316942680027    0.8966525550395699 O
   0.5903358736445768    0.7439683041598285    0.3966526662601655 O
   0.2117104460971848    0.4513009677074934    0.1829253765573178 O
   0.2117106454781449    0.5486990307203371    0.6829252653367232 O
   0.0863987295179578    0.5137501402325730    0.4230040906550437 O
   0.6832645921048284    0.9627565392720774    0.2796589371747397 O
   0.6832647914857884    0.0372434591557539    0.7796588259541443 O
   0.7590075736235444    0.9262116014721947    0.5487192389479002 O
   0.7590073742425842    0.0737883969556353    0.0487193501684955 O
   0.1775102357547432    0.2475159997243216    0.0112108220186073 O
   0.1775104351357033    0.7524839987035091    0.5112107107980129 O
   0.3918640711205018    0.4397872934264946    0.9620517625595142 O
   0.0863989288989179    0.4862498581952568    0.9230039794344496 O
   0.1662365105868582    0.2040774935890059    0.7280980260012770 O
   0.9490379124133932    0.6758703230042115    0.7715712180262209 O
   0.0878362631962935    0.0139214348530534    0.9148664132404215 O
   0.0878360638153334    0.9860785635747773    0.4148665244610092 O
   0.7095771865927308    0.8110080593742136    0.0455594625937314 O
   0.7095773859736909    0.1889919390536169    0.5455593513731356 O
   0.4602519944396130    0.9785150578048205    0.0662541600182948 O
   0.4602521938205731    0.0214849406230107    0.5662540487976998 O
   0.8972170655002115    0.7749621668195240    0.3633812327938430 O
   0.9490377130324329    0.3241296754236198    0.2715713292468162 O
   0.2421046395472169    0.7181598397746956    0.8985960477836186 O
   0.2421044401662568    0.2818401586531358    0.3985961590042144 O
   0.6999679120581005    0.5070156015878066    0.4875503881507588 O
   0.6999681114390606    0.4929843968400245    0.9875502769301623 O
   0.5712719422692025    0.6752580805184779    0.6741632221392240 O
   0.5712717428882423    0.3247419179093533    0.1741633333598199 O
   0.1662363112058981    0.7959225048388245    0.2280981372218729 O
   0.8972172648811717    0.2250378316083069    0.8633811215732471 O
