Be1 P4 Ru1
1.0
   0.0000000000000000    3.4939099093890142    3.4939099093890142
   3.4939099093890142    0.0000000000000000    3.4939099093890142
   3.4939099093890142    3.4939099093890142    0.0000000000000000
Be P Ru
1 4 1
direct
   0.0000000000000000    0.0000000000000000    0.0000000000000000 Be
   0.6273746373284891    0.1178761398824830    0.6273746373284892 P
   0.1178761398824830    0.6273746373284892    0.6273746373284891 P
   0.6273746373284891    0.6273746373284892    0.6273746373284892 P
   0.6273746373284891    0.6273746373284892    0.1178761398824830 P
   0.2500000064834947    0.2500000064834947    0.2500000064834947 Ru
