Zr1 Ag1 F3
1.0
   4.2380081208477653    0.0000000000000000   -0.0000000000000000
   0.0000000000000000    4.2380081208477653    0.0000000000000000
  -0.0000000000000000    0.0000000000000000    4.2380081208477653
Zr Ag F
1 1 3
direct
   0.0000000000000000    0.0000000000000000    0.0000000000000000 Zr
   0.4999999014790352    0.4999999014790352    0.4999999014790352 Ag
   0.0000000000000000    0.0000000000000000    0.4999999014790352 F
   0.4999999014790352    0.0000000000000000    0.0000000000000000 F
   0.0000000000000000    0.4999999014790352    0.0000000000000000 F
