Ho2 Mg1 Os1
1.0
   4.2893114012877058    0.0000000000000000    2.4764349192468766
   1.4297704670959019    4.0440009659555267    2.4764349192468766
  -0.0000000000000000    0.0000000000000000    4.9528698384937533
Ho Mg Os
2 1 1
direct
   0.2499999110074694    0.2499999402846627    0.2499995859003797 Ho
   0.7499997330224083    0.7499998208539880    0.7499987577011389 Ho
   0.4999998220149388    0.4999998805693254    0.4999991718007593 Mg
   0.0000000000000000    0.0000000000000000    0.0000000000000000 Os
