Ba1 Ce1 Mg2
1.0
   0.0000000000000000    4.0568328230256014    4.0568328230256014
   4.0568328230256014    0.0000000000000000    4.0568328230256014
   4.0568328230256014    4.0568328230256014   -0.0000000000000000
Ba Ce Mg
1 1 2
direct
   0.2499998260326636    0.2499998260326636    0.2499998260326636 Ba
   0.7499994780979908    0.7499994780979908    0.7499994780979908 Ce
   0.0000000000000000    0.0000000000000000    0.0000000000000000 Mg
   0.4999996520653273    0.4999996520653272    0.4999996520653272 Mg
