Be2 Cr1 Cu1
1.0
   2.4979955581728759    0.0000000000000000   -0.0000000000000000
   0.0000000000000000    2.4979955581728759    0.0000000000000000
   0.0000000000000000    0.0000000000000000    6.2509149980905585
Be Cr Cu
2 1 1
direct
   0.0000000000000000    0.0000000000000000    0.0199537566013185 Be
   0.5000008890782671    0.5000008890782671    0.2194599046852559 Be
   0.0000000000000000    0.0000000000000000    0.4751459304143918 Cr
   0.5000008890782671    0.5000008890782671    0.7854392089328867 Cu
