Y2 Al3 Si2
1.0
   4.0604292565100915    0.0000000017447004   -0.0000000000467001
  -2.0302141249503647    5.0224691325511639   -0.9964210689389202
  -0.0000000000659272    0.0223897137051942    6.6619536082545636
Y Al Si
2 3 2
direct
   0.3804029979979913    0.7608043108791105    0.6788246240170369 Y
   0.6195983164717959    0.2391959200351431    0.3211750293607480 Y
   0.6945992050240061    0.3891973648857796    0.8662330569256993 Al
   0.0000000000000000    0.0000000000000000    0.0000000000000000 Al
   0.3054021094457811    0.6108028660284741    0.1337665964520856 Al
   0.9065756077421533    0.8131482313355622    0.3608219431016620 Si
   0.0934257067276338    0.1868519995786916    0.6391777102761230 Si
