Li1 Co8 O16
1.0
   5.6610622975745795   -0.2152346538240975    2.6522758614136315
   1.4753928440889847    5.8550548230110993    1.6099804763958363
   0.0582273173885704    0.0195393106304008    7.4453799526279312
Li Co O
1 8 16
direct
   0.0000000768164391    0.4999996497608594    0.5000000195594998 Li
   0.8127464657825987    0.1862790716220701    0.0632559338041678 Co
   0.3192868321241346    0.6924346002361529    0.5595731543397213 Co
   0.5528119682349564    0.4318938911328581    0.8175807231549819 Co
   0.1872530749930579    0.8137209981816997    0.9367447129283787 Co
   0.0699818583119449    0.9450829240502896    0.3077847273188281 Co
   0.6807127086515222    0.3075654695676168    0.4404274923928255 Co
   0.9300176824637113    0.0549171457534795    0.6922159194137187 Co
   0.4471875725407003    0.5681061786709113    0.1824199235775644 Co
   0.8650876659620704    0.9232625426563681    0.9602321072370352 O
   0.2545660440398168    0.9508110481992139    0.6695018434628683 O
   0.3612045360859924    0.4303592103301742    0.4560107624122353 O
   0.6387950046896642    0.5696408594735954    0.5439898843203118 O
   0.7615968180476285    0.4472905082286027    0.1682860290238392 O
   0.1203560161844153    0.6784361462147174    0.2105026801409758 O
   0.1349118748135859    0.0767375271474013    0.0397685394955117 O
  -0.0024162636489561    0.7948668004059961    0.5776770911413839 O
   0.6102128106060453    0.1701620480048603    0.7103454875602309 O
   0.8796435245912410    0.3215639235890520    0.7894979665915709 O
   0.5098001263932788    0.6979273948666009    0.9141665617155231 O
   0.3897867301696109    0.8298380217989093    0.2896551591723161 O
   0.7454334967358396    0.0491890216045553    0.3304988032696780 O
   0.2384027227280281    0.5527095615751669    0.8317146177087077 O
   0.4901994143823774    0.3020726749371684    0.0858340850170232 O
   0.0024164172818342    0.2051324991157226    0.4223229479776155 O
