Li8 B16 O28
1.0
   7.8363699758977763   -0.0159059649071178   -3.1298012816614533
  -4.2359045905400210    6.9652826438113049   -2.1786580755391447
  -0.0096731401856105    0.0159059220363678    8.4382615918944524
Li B O
8 16 28
direct
   0.6865082270240948    0.6815625620180054    0.6967451063657464 Li
   0.5151825383433497    0.4467448331903672    0.2602373900110937 Li
   0.3134929429057311    0.0102378671768408    0.9950553199225395 Li
   0.4848177450168769    0.7450545269854731   -0.0684373996185516 Li
  -0.0151819105541494    0.1815630376872187    0.4950552112164148 Li
   0.0151826728586952    0.5102373846871762    0.1967450988853150 Li
   0.1865079114380215   -0.0532546861760811    0.4315628970848336 Li
   0.8134927089049887    0.2450550112169454    0.7602375068249370 Li
   0.7575905559583030    0.6167074551024812    0.0383306515468381 B
   0.7424093041469794    0.1091171224378710    0.0307402158694016 B
   0.0783780938890150    0.6091178096403314    0.8667081831362936 B
  -0.0783765579577917    0.7883308998956412    0.5307402977963757 B
   0.6681316048516687    0.8851333909781746    0.4414061654419025 B
   0.4216232895919174    0.7807400891187318    0.5383307731871808 B
   0.4437280739636454    0.3851338711487946    0.7170027382458242 B
   0.1681318252065042    0.6914063164714689    0.6351338529952929 B
   0.0562725204788925    0.1914062113647652    0.0232751081552405 B
   0.2575908221576865    0.2883307990240946    0.3667081073556615 B
  -0.0562723476599304   -0.0329971798736517    0.1351338968300637 B
   0.2424101199331767    0.2807405705134662    0.8591176940567421 B
   0.5562730560674104    0.2732752713167520    0.9414064053045536 B
   0.8318691363331594    0.4670023435615663    0.5232750837964704 B
   0.5783773862995628    0.1167079364972157    0.3591175724163985 B
   0.3318691881966025    0.7732747866223492    0.2170025645912477 B
   0.5757282840922625    0.1209077400692163   -0.0193165168807913 O
  -0.0000000044911120   -0.0033362763716870   -0.0033362762049688 O
   0.3597760809100130    0.7306834736578189    0.6549551193012396 O
   0.5000004741149352    0.2466637791155292    0.7466637930775679 O
   0.7871562293362164    0.6240038531727715    0.5202605102056251 O
   0.8962561793741068    0.2331041362775959    0.0202604557671176 O
   0.0757291208915970    0.2306839547084673    0.8709082803203367 O
   0.6037443082910423    0.5868483079751355    0.8740042643770169 O
   0.4242719854414354    0.4049550659630941    0.5451797046298498 O
   0.2557301291532789    0.3398249832609325    0.7246111387975575 O
   0.7442704485861368    0.4688809463644731    0.0840951250492053 O
   0.1152144754307492    0.8340952392572621    0.5898248033361938 O
   0.1402247837992424    0.6209078423920685    0.0451795827113925 O
   0.7557293788753023   -0.0253893112732076    0.0898247745341967 O
   0.2442706492772973    0.3340951367446308    0.2188814669340488 O
   0.7128442954203029    0.0868482051513663    0.4831047469900010 O
   0.3847866402209839    0.9688810474950789    0.2246108941389311 O
  -0.1402238227171942    0.9049551651277549    0.4806835336081430 O
   0.9242716982289151    0.7951789554778245    0.1549549298072378 O
   0.5000003056235426    0.7466632966830180    0.2466635863189540 O
   0.6152143186138536    0.8398245038517966    0.5840951853277347 O
   0.6402247382104999    0.2951794365284736    0.3709080908263365 O
   0.8847866518954810    0.4746107945221248    0.7188814828890844 O
   0.1037439017777886    0.1240043316369094    0.3368484101342857 O
   0.0000005450957030    0.4966638277822953    0.4966637461735483 O
   0.3962570405258790    0.2702608406798540    0.9831048630400382 O
   0.2128449509893080    0.7331048230496970    0.8368484004528109 O
   0.2871563353184110    0.7702603569171292    0.3740041512899245 O
