Pm3 Y1
1.0
  -2.5440877139860931    2.5440877139860931    5.0707810171504573
   2.5440877139860931   -2.5440877139860931    5.0707810171504573
   2.5440877139860931    2.5440877139860931   -5.0707810171504573
Pm Y
3 1
direct
   0.7500003991315231    0.2499999498518276    0.4999994492787995 Pm
   0.2499999498518275    0.7500003991315231    0.4999994492787995 Pm
   0.4999998997047542    0.4999998997047542    0.0000000000000000 Pm
   0.0000000000000000    0.0000000000000000    0.0000000000000000 Y
