Er3 Mn3 Ga2 Si1
1.0
   3.4918325058791124   -6.0480324463850756   -0.0000000000000000
   3.4918325058791124    6.0480324463850756   -0.0000000000000000
   0.0000000000000000    0.0000000000000000    3.8980214246183320
Er Mn Ga Si
3 3 2 1
direct
  -0.0000000927105568    0.5921208538254327    0.4999998172639171 Er
   0.5921208538254327   -0.0000000927105568    0.4999998172639171 Er
   0.4078785212450002    0.4078785212450002    0.4999998172639171 Er
   0.2198920144688494   -0.0000000344293519    0.0000000000000000 Mn
  -0.0000000344293519    0.2198920144688494    0.0000000000000000 Mn
   0.7801073023203787    0.7801073023203787    0.0000000000000000 Mn
   0.6666665737643471    0.3333327085955289    0.0000000000000000 Ga
   0.3333327085955289    0.6666665737643471    0.0000000000000000 Ga
   0.0000000000000000    0.0000000000000000    0.4999998172639171 Si
