Hf4 Co2 P2
1.0
   0.0000000000000000    5.1814512582723058    0.0033991668462376
   3.5993221149903714    0.0000000000000000    0.0000000000000000
   0.0000000000000000   -2.4702702454099459   -6.9451203954373444
Hf Co P
4 2 2
direct
   0.7708953961221132    0.7499995592940204    0.5639955606197665 Hf
   0.2291043239965882    0.2499998530980068    0.4360042623433498 Hf
   0.2960042395778995    0.7499995592940204    0.0821629324051377 Hf
   0.7039954805408021    0.2499998530980068    0.9178368905579792 Hf
   0.3609437411920724    0.7499995592940204    0.7084306642415245 Co
   0.6390559789266291    0.2499998530980068    0.2915691587215921 Co
   0.8643080758667420    0.7499995592940204    0.2088118960397146 P
   0.1356916442519596    0.2499998530980068    0.7911879269234018 P
