Be2 Cu1 Br1
1.0
  -1.6313152478425310    1.6313152478425310    5.9117518906210389
   1.6313152478425310   -1.6313152478425310    5.9117518906210389
   1.6313152478425310    1.6313152478425310   -5.9117518906210389
Be Cu Br
2 1 1
direct
   0.0000000000000000    0.0000000000000000    0.0000000000000000 Be
   0.2499999200481907    0.7500013765899215    0.5000014565417308 Be
   0.7500013765899215    0.2499999200481907    0.5000014565417309 Cu
   0.4999998400963814    0.4999998400963814    0.0000000000000000 Br
