Si12 Ru8
1.0
   5.6253439670256640    0.0000000000000000    0.0000000000000000
   0.0000000000000000    5.6253439670256640    0.0000000000000000
  -0.0000000000000000    0.0000000000000000    8.9866259525217451
Si Ru
12 8
direct
   0.1712203759296644    0.8287789188644517    0.7500003377918151 Si
   0.3535361160260561    0.7905092534067565    0.0895611284887391 Si
   0.7905092534067565    0.6464631787680605    0.9104393219003475 Si
   0.6464631787680605    0.2094900413873595    0.0895611284887391 Si
   0.7905092534067565    0.3535361160260561    0.4104390967058044 Si
   0.2094900413873595    0.6464631787680605    0.4104390967058044 Si
   0.2094900413873595    0.3535361160260561    0.9104393219003475 Si
   0.3535361160260561    0.2094900413873595    0.5895613536832826 Si
   0.8287789188644517    0.1712203759296644    0.7500003377918151 Si
   0.1712203759296644    0.1712203759296644    0.2500001125972717 Si
   0.8287789188644517    0.8287789188644517    0.2500001125972717 Si
   0.6464631787680605    0.7905092534067565    0.5895613536832826 Si
   0.0000000000000000    0.4999996473970580    0.6265637974157360 Ru
   0.0000000000000000    0.0000000000000000    0.5000002251945433 Ru
   0.0000000000000000    0.0000000000000000    0.0000000000000000 Ru
   0.4999996473970580    0.4999996473970580    0.7500003377918151 Ru
   0.4999996473970580    0.4999996473970580    0.2500001125972717 Ru
   0.4999996473970580    0.0000000000000000    0.8734368781678941 Ru
   0.0000000000000000    0.4999996473970580    0.1265635722211926 Ru
   0.4999996473970580    0.0000000000000000    0.3734366529733505 Ru
