Ti2 Be1 Fe1
1.0
   2.9633913680690078    0.0000000000000000    0.0000000000000000
   0.0000000000000000    2.9633913680690078   -0.0000000000000000
   0.0000000000000000   -0.0000000000000000    5.8248748291280235
Ti Be Fe
2 1 1
direct
   0.0000000000000000    0.0000000000000000    0.9705548831726151 Ti
   0.4999997691717296    0.4999997691717296    0.2859744764061387 Ti
   0.0000000000000000    0.0000000000000000    0.5410096847079424 Be
   0.4999997691717296    0.4999997691717296    0.7024588830816314 Fe
