Rb4 Te2
1.0
   3.0338843197700194   -5.2548417861282264   -0.0000000000000000
   3.0336961816643320    5.2547331645422641    0.0000000000000000
  -0.0000000000000000   -0.0000000000000000    7.8250989110261981
Rb Te
4 2
direct
   0.0000000000000000    0.0000000000000000    0.0000000000000000 Rb
   0.0000000000000000    0.0000000000000000    0.5000000695821110 Rb
   0.6666653004187394    0.3333309044868606    0.7500001043731664 Rb
   0.3333347480944069    0.6666688817087286    0.2500000347910555 Rb
   0.6666746734722990    0.3333496505766943    0.2500000347910555 Te
   0.3333253750408471    0.6666501356188950    0.7500001043731664 Te
