Sb5 Pd1
1.0
   2.1269929787690449   -3.6840664180549738    0.0000000000000000
   2.1269929787690449    3.6840664180549738   -0.0000000000000000
  -0.0000000000000000   -0.0000000000000000   10.3146640236942648
Sb Pd
5 1
direct
   0.6666661284832655    0.3333324710565194    0.1213679764307175 Sb
   0.6666661284832655    0.3333324710565194    0.5701306430986065 Sb
   0.3333324710565194    0.6666661284832653    0.3786326732415061 Sb
   0.3333324710565194    0.6666661284832653    0.9298653359645456 Sb
   0.0000000000000000    0.0000000000000000    0.7500181865109345 Sb
   0.0000000000000000    0.0000000000000000    0.2499840144700269 Pd
