Rb3 Nd1 Cl6
1.0
   7.0383204646283781   -0.0000000000000000    4.0635762148960470
   2.3461068215427932    6.6357921716037040    4.0635762148960470
  -0.0000000000000000   -0.0000000000000000    8.1271524297920923
Rb Nd Cl
3 1 6
direct
   0.7500003709983120    0.7499997545578982    0.7500004115961476 Rb
   0.2500001236661040    0.2499999181859661    0.2500001371987159 Rb
   0.5000002473322079    0.4999998363719321    0.5000002743974318 Rb
   0.0000000000000000    0.0000000000000000    0.0000000000000000 Nd
   0.7639739498375274    0.2360260548232077    0.2360265249041720 Cl
   0.2360262488179363    0.2360260548232077    0.7639738396240608 Cl
   0.2360265448268884    0.7639736179206565    0.7639740238906915 Cl
   0.2360265448268884    0.7639736179206565    0.2360264458607671 Cl
   0.7639739498375274    0.2360260548232077    0.7639741029340964 Cl
   0.7639742458464795    0.7639736179206565    0.2360267091708024 Cl
