Tl3 S2 O8
1.0
   5.2941485400989601    0.0095023108400541    2.0209670466202159
   2.2523394414300677    4.7911445500132572    2.0209670466202176
   0.0249545176374420    0.0158746462001284    7.8891763042712997
Tl S O
3 2 8
direct
   0.5000004942343773    0.4999992815959935    0.0000004317838879 Tl
   0.7020960625767486    0.7020941520972833    0.3935705838469344 Tl
   0.2979044820138936    0.2979034394740295    0.6064311107841679 Tl
   0.8932677481079336    0.8932651487294416    0.8203981109713444 S
   0.1067327964827085    0.1067324428418715    0.1796035836597579 S
   0.2056509531828641    0.7744198712965851    0.7459363660006336 O
   0.7744215784338423    0.2056494960501210    0.7459363019570802 O
   0.7744382043361583    0.7744359325265517    0.7457885416902430 O
   0.7943495914077778    0.2255777202747277    0.2540653286304689 O
   0.2255789661567995    0.7943480955211918    0.2540653926740223 O
   0.2255623402544835    0.2255616590447608    0.2542131529408596 O
   0.8250617325776495    0.8250597186334675    0.0245261032139242 O
   0.1749388120129925    0.1749378729378454    0.9754755914171784 O
