Yb3 In3 Au3
1.0
   3.9073681467860788   -6.7677597285959132   -0.0000000000000000
   3.9073681467860788    6.7677597285959132   -0.0000000000000000
  -0.0000000000000000    0.0000000000000000    3.9440956728908709
Yb In Au
3 3 3
direct
   0.0000001295945859    0.5969564173032744    0.5000005485552947 Yb
   0.5969564173032744    0.0000001295945859    0.5000005485552947 Yb
   0.4030439273891406    0.4030439273891406    0.5000005485552947 Yb
   0.0000000574582220    0.2646719269738745    0.0000000000000000 In
   0.2646719269738745    0.0000000574582220    0.0000000000000000 In
   0.7353284898549046    0.7353284898549046    0.0000000000000000 In
   0.0000000000000000    0.0000000000000000    0.5000005485552947 Au
   0.6666672438272608    0.3333332304597404    0.0000000000000000 Au
   0.3333332304597404    0.6666672438272608    0.0000000000000000 Au
