Li4 Cr2 P4 O14
1.0
   5.1896505014513954    0.2726177806267929   -0.0004208329070922
   2.9565176633538179    6.5422537169759876   -0.0001592277112742
   0.0007333952276123   -0.0000565025085404    8.3224525766927933
Li Cr P O
4 2 4 14
direct
   0.2264618126683524    0.0597419929825028    0.1508618798368481 Li
   0.4943079859918011    0.3177069698771179    0.3710836949918254 Li
   0.5056907046558584    0.6822927124757522    0.8710840798912732 Li
   0.7735383554878423    0.9402573908341452    0.6508654627886721 Li
   0.5104041339010454    0.2889299775843065    0.0015771964135811 Cr
   0.4895947935136226    0.7110702960945465    0.5015770012490707 Cr
   0.1029147272258979    0.0742001062753164    0.7844232919589597 P
   0.1182579798011176    0.4864154198972301    0.6914760351644568 P
   0.8817405570161079    0.5135854040250577    0.1914782856441315 P
   0.8970863679357758    0.9257978502855463    0.2844236355418269 P
   0.6960417277163077    0.9964273664003016    0.4291660435240362 O
   0.8573347907233024    0.7460737428721068    0.1899650779137479 O
   0.7908890295170917    0.6470019394526597    0.6864218573096642 O
   0.7498931332697996    0.4849591610785179    0.3487984587075343 O
   0.7218912991539993    0.5075318160388643    0.0414172002436326 O
   0.2781009000529047    0.4924733151746500    0.5414104318828866 O
   0.8070379797222778    0.1051797518567362    0.1622137273436113 O
   0.2091083686335783    0.3529973493675430    0.1864224474615729 O
   0.1426680912289563    0.2539249783303463    0.6899618224890508 O
   0.3039588203192959    0.0035689473951428    0.9291644810701389 O
   0.1929648729035538    0.8948163263459451    0.6622154876067462 O
   0.7801952668359803    0.1481617636428084    0.8145443469299432 O
   0.2501113755902577    0.5150364442170940    0.8487943998078785 O
   0.2198048132332053    0.8518380874318624    0.3145432294055385 O
