Dy2 Mo2 Cl2 O8
1.0
   6.0914487451726043    0.0014558073079589    1.5133799686895124
   1.7769579040701637    5.8265058043002158    1.5133799713245912
   0.0124068725311434    0.0091892390781253    6.8481606652854738
Dy Mo Cl O
2 2 2 8
direct
   0.7782648828916481    0.7782658644916683    0.1089683186828882 Dy
   0.2217357234704183    0.2217357065468256    0.8910311117431536 Dy
   0.3624976224279139    0.3624980041100896    0.2697418310552491 Mo
   0.6375029839341533    0.6375035669284049    0.7302575993707930 Mo
   0.0090815637903152    0.0090814936306211    0.2379159217883124 Cl
   0.9909190425717519    0.9909200774078732    0.7620835086377302 Cl
   0.4901681267100750    0.1103081844537746    0.1536546997261520 O
   0.1103078705747772    0.4901684932066507    0.1536546879487351 O
   0.2946697189723341    0.2946699199388899    0.5361745375351835 O
   0.8896927357872895    0.5098330778318438    0.8463447424773073 O
   0.7053308873897323    0.7053316510996038    0.4638248928908588 O
   0.5098324796519922    0.8896933865847194    0.8463447306998905 O
   0.5422179681587594    0.5422186087468347    0.2014505509406983 O
   0.4577826382033075    0.4577829622916587    0.7985488794853439 O
