Li2 Hf1 O2
1.0
   3.0301070668372607    0.0000000000000000   -0.0000000000000000
  -1.5150535334186304    2.6241496960615587   -0.0000000000000000
  -0.0000000000000000   -0.0000000000000000    5.8806215459431117
Li Hf O
2 1 2
direct
   0.6666683277621288    0.3333330436008838    0.3769617332724321 Li
   0.3333341436709396    0.6666660872017675    0.6230388184382970 Li
   0.0000000000000000    0.0000000000000000    0.0000000000000000 Hf
   0.6666683277621288    0.3333330436008838    0.7286346609838741 O
   0.3333341436709396    0.6666660872017675    0.2713658907268551 O
