In1 Cu1 Rh2
1.0
  -8.5577339392852227    0.0000000028455927   -4.9408102025524858
  -8.3805751568294404   -0.2005690082786523    4.6339608550030684
  -5.5515532238319638    7.8011099725817417   -0.2660470769418398
In Cu Rh
1 1 2
direct
   0.4999998779596228   -0.0000001084368992   -0.0000000029703308 In
   0.0000000000000000    0.0000000000000000    0.0000000000000000 Cu
   0.7586289566783945   -0.0000001645266316   -0.0000000045069313 Rh
   0.2413707992408511   -0.0000000523471668   -0.0000000014337303 Rh
