Ti1 Be1 Fe2
1.0
  -1.9838410668316369    1.9838410668316369    2.8089260276811889
   1.9838410668316369   -1.9838410668316369    2.8089260276811889
   1.9838410668316369    1.9838410668316369   -2.8089260276811889
Ti Be Fe
1 1 2
direct
   0.2500003535442705    0.7500000846639517    0.4999997311196813 Ti
   0.7500000846639517    0.2500003535442704    0.4999997311196813 Be
   0.0000000000000000    0.0000000000000000    0.0000000000000000 Fe
   0.5000007070885407    0.5000007070885407    0.0000000000000000 Fe
