Li4 Co4 O8
1.0
   5.6835964370498226    0.0462091692712524   -0.0096718320677612
  -0.0465438655229549    5.6835639997516214   -0.0092978682351746
  -2.8117693331214766   -2.8582676409044154    4.0288355020981550
Li Co O
4 4 8
direct
   0.5000006465761899    0.0000002564365530    0.5000007877270470 Li
   0.5000004281566099    0.0000001846760714    0.0000002288234485 Li
   0.0000000000000000    0.0000000000000000    0.0000000000000000 Li
   0.5000008514519735    0.4999997695339763    0.5000005225317954 Li
   0.0000002048757836    0.4999995130974233   -0.0000002651952516 Co
   0.0000002184195800    0.0000000717604816    0.5000005589035984 Co
   0.5000006330323935    0.4999996977734946   -0.0000000363718030 Co
   0.0000004232953636    0.4999995848579049    0.5000002937083469 Co
   0.2400044569592471    0.7200313187231989    0.9799976895525706 O
   0.2399890834323281    0.2599732479350249    0.9799999843280059 O
   0.7799720922913841    0.2599978465682212    0.5200067271632183 O
   0.2400269081698940    0.2600134336102979    0.5200050759926038 O
   0.7599747947340532    0.7399861054576544    0.4799959690709869 O
   0.2200296106125630    0.7400016924997315    0.4799943179003728 O
   0.7600126194716188    0.7400262911329278    0.0200010607355848 O
   0.7599972459446999    0.2799682203447535    0.0200033555110203 O
