Mn12 P4
1.0
   4.1926479142176252    0.0000000009560125    1.4884624795950601
   2.0963264510896829    6.3048905908483350    0.7442227607054315
  -0.0130356767056147    0.0000089774860989    6.6858010275978472
Mn P
12 4
direct
   0.3413665461735203    0.6760730855320873    0.6167797139997785 Mn
   0.0418535125383455    0.6167802325542455    0.3239265848493555 Mn
   0.9825605683009156    0.3832198357566445    0.6760723969678890 Mn
   0.6342199239842248    0.3239269827870190    0.3832192913174800 Mn
   0.9305528811823460    0.0471843578841095    0.6073491760780446 Mn
   0.4620970519603353    0.6073497037982855    0.9528152208984803 Mn
   0.0222629917676929    0.3926503645933274    0.0471840208455894 Mn
   0.5850876260866372    0.9528157103542733    0.3926495693123885 Mn
   0.1322605680508024    0.9768787472355666    0.1869763352069030 Mn
   0.6807636674009921    0.1869769578691042    0.0231207532612894 Mn
   0.8908624323881054    0.8130231103611365    0.9768779651832504 Mn
   0.2961148831576134    0.0231213211641884    0.8130229334825785 Mn
   0.2032712672500019    0.2503471993721834    0.3307228803494369 P
   0.4660052777988415    0.3307231940690728    0.7496524645736673 P
   0.5463821090383019    0.6692768742430173    0.2503465230323942 P
   0.7843418969098599    0.7496528689457224    0.6692761191790040 P
