V1 B11
1.0
   4.2887421104593395    0.5920933039232427    2.7278347808177337
   1.7529825652492619    4.6392426117322128    3.1584004845832765
   0.0461915861116809    0.5920932678001714    5.0825442095242472
V B
1 11
direct
   0.0226165094364158    0.6049988195675532    0.0226169999363508 V
  -0.0066251775232892    0.0695810676253981    0.6273153005234982 B
   0.6273153302604642    0.0695810771313642   -0.0066253221866211 B
   0.3750965550713500    0.9474604505043500    0.0127897229062588 B
   0.9817436669758427    0.2926969392493501    0.9817434519582727 B
   0.0127890620551498    0.9474604449606184    0.3750972815805580 B
   0.2553316106698684    0.6210568880561886    0.2553320054948708 B
   0.2232867559518022    0.2156621335246199    0.6131697751048706 B
   0.6131697562338109    0.2156621394398277    0.2232867041648534 B
   0.3843179066157017    0.8010301960919891    0.7790818002093525 B
   0.7318727751094990    0.4137698347097636    0.7318727764449197 B
   0.7790813727511758    0.8010302017611431    0.3843182624717092 B
