Ca1 Pr1 Rh2
1.0
   4.2699198153113125   -0.0000000025841812    2.4652393282262075
   1.4233069344561051    4.0257186722543148    2.4652393282262075
  -0.0000000026753411   -0.0000000018917515    4.9304776657200682
Ca Pr Rh
1 1 2
direct
   0.5000003257550990    0.5000001654638251    0.5000001273591710 Ca
   0.0000000000000000    0.0000000000000000    0.0000000000000000 Pr
   0.2500001628775495    0.2500000827319125    0.2500000636795855 Rh
   0.7500004886326486    0.7500002481957376    0.7500001910387565 Rh
