Pm2 Ni6
1.0
   2.9236282267548583   -5.0638716009848626    0.0000000000000000
   2.9236282267548583    5.0638716009848626    0.0000000000000000
  -0.0000000000000000   -0.0000000000000000    4.2204986182972437
Pm Ni
2 6
direct
   0.3333333559542046    0.6666672505678989    0.2500000818447582 Pm
   0.6666672505678989    0.3333333559542046    0.7500002455342747 Pm
   0.1396314386654403    0.8603691678566632    0.7500002455342747 Ni
   0.7207384586191360    0.8603694359443844    0.7500002455342747 Ni
   0.1396311705777190    0.2792621479029674    0.7500002455342747 Ni
   0.8603691678566632    0.1396314386654402    0.2500000818447582 Ni
   0.2792621479029675    0.1396311705777189    0.2500000818447582 Ni
   0.8603694359443848    0.7207384586191360    0.2500000818447582 Ni
