Ho2 B4 C4
1.0
   5.3370193932343160   -0.0000000000000000   -0.0000000000000000
   0.0000000000000000    5.3370193932343160    0.0000000000000000
  -0.0000000000000000   -0.0000000000000000    3.5391532403714709
Ho B C
2 4 4
direct
   0.5000000568449953    0.5000000568449953    0.0000000000000000 Ho
   0.0000000000000000    0.0000000000000000    0.0000000000000000 Ho
   0.1369670531939141    0.6369671100389096    0.4999995422109116 B
   0.6369671100389096    0.8630330604960762    0.4999995422109116 B
   0.8630330604960762    0.3630330036510812    0.4999995422109116 B
   0.3630330036510812    0.1369670531939141    0.4999995422109116 B
   0.8381190365868938    0.6618811339480920    0.4999995422109116 C
   0.3381189797418983    0.8381190365868938    0.4999995422109116 C
   0.6618811339480920    0.1618810771030969    0.4999995422109116 C
   0.1618810771030969    0.3381189797418983    0.4999995422109116 C
