Si8 Sb8 Pt8
1.0
   6.4150638567670724    0.0000000000000000    0.0000000000000000
  -0.0000000000000000    6.4309011519637780    0.0000000000000000
   0.0000000000000000    0.0000000000000000   11.6848860094483893
Si Sb Pt
8 8 8
direct
   0.8554568816050080    0.2661724144931123    0.4264608262821146 Si
   0.3554571822073999    0.2338274959421632    0.5735385152314991 Si
   0.1445425171902089    0.7661723249283883    0.0735393444748617 Si
   0.6445422165878182    0.7338274063774386    0.9264619970394302 Si
   0.1445425171902089    0.7338274063774386    0.5735385152314991 Si
   0.6445422165878182    0.7661723249283883    0.4264608262821146 Si
   0.8554568816050080    0.2338274959421632    0.9264619970394302 Si
   0.3554571822073999    0.2661724144931123    0.0735393444748617 Si
   0.6177660280846760    0.0074742132781057    0.1732631059225718 Sb
   0.1177663286870676    0.4925256971571699    0.8267372355913812 Sb
   0.3822333707105411    0.5074741237133812    0.3267370648344046 Sb
   0.8822330701081501    0.9925256075924458    0.6732632766795480 Sb
   0.3822333707105411    0.9925256075924458    0.8267372355913812 Sb
   0.8822330701081501    0.5074741237133812    0.1732631059225718 Sb
   0.6177660280846760    0.4925256971571699    0.6732632766795480 Sb
   0.1177663286870676    0.0074742132781057    0.3267370648344046 Sb
   0.5128852797862405    0.1199221020744875    0.3936551386654995 Pt
   0.0128855803886318    0.3800778083607882    0.6063452028484534 Pt
   0.4871141190089771    0.6199220125097634    0.1063450320914770 Pt
   0.9871138184065856    0.8800777187960636    0.8936553094224758 Pt
   0.4871141190089771    0.8800777187960636    0.6063452028484534 Pt
   0.9871138184065856    0.6199220125097634    0.3936551386654995 Pt
   0.5128852797862405    0.3800778083607882    0.8936553094224758 Pt
   0.0128855803886318    0.1199221020744875    0.1063450320914770 Pt
