La1 B1 O2
1.0
   2.1120448023499190    1.2193896352141491    4.1964544651681237
  -2.1120448023499190    1.2193896352141491    4.1964544651681237
  -0.0000000000000000   -2.4387792704282982    4.1964544651681237
La B O
1 1 2
direct
   0.4999994818106893    0.4999994818106893    0.4999994818106893 La
   0.0000000000000000    0.0000000000000000    0.0000000000000000 B
   0.8944442776375758    0.8944442776375758    0.8944442776375761 O
   0.1055546859779476    0.1055546859779476    0.1055546859779477 O
