Co2 P2 O8
1.0
   5.0080323924464993    0.0144780631709280   -0.0201463205128405
   2.2947437058020119    7.3090889744716696    4.1557574862975777
   2.3349751817270703   -1.5232270753973221    4.1603689072631598
Co P O
2 2 8
direct
   0.1960432012750854    0.2532536397517717    0.3013793956766149 Co
   0.8013790829050512    0.7532536777039647    0.6960431272185599 Co
   0.1839469322334794    0.6254761434220870    0.0670910759115021 P
   0.5670913842972344    0.1254758816802760    0.6839474107069166 P
   0.0719473719061351    0.7454943283969654    0.2913152980584889 O
   0.2933088472018132    0.4571128980467568    0.2167162260785625 O
   0.2674548353905472    0.1879102075347989    0.9459525530146765 O
   0.4842311418027886    0.1127167645030656    0.4290932037108386 O
   0.4459521256590101    0.6879103811857373    0.7674545138408219 O
   0.7913151002199845    0.2454941854726350    0.5719475480687281 O
   0.9290935232646695    0.6127167457595466    0.9842308212952326 O
   0.7167158548322570    0.9571128717128341    0.7933092690988467 O
