P4 Br12 O4
1.0
   6.1372645405408024   -0.0000000000000000    0.0000000000000000
  -0.0000000000000000    9.1601341730691352    0.0000000000000000
   0.0000000000000000    0.0000000000000000    9.8048570174638563
P Br O
4 12 4
direct
   0.8688199293167430    0.8061501256501205    0.7500002281422466 P
   0.1311793308518923    0.1938494187813193    0.2500000760474155 P
   0.6311789609362095    0.3061503534344007    0.7500002281422466 P
   0.3688202992324252    0.6938491909970396    0.2500000760474155 P
   0.1078975804882018    0.9852897329050739    0.7500002281422466 Br
   0.6078972105725206    0.5147095837420861    0.2500000760474155 Br
   0.3921020495961159    0.4852899606893539    0.7500002281422466 Br
   0.8416672644204994    0.3437593979915038    0.9291595910655025 Br
   0.8416672644204994    0.3437593979915038    0.5708408652189908 Br
   0.6583316258324532    0.8437591702072232    0.9291595910655025 Br
   0.1583319957481351    0.6562401464399369    0.0708407131241599 Br
   0.6583316258324532    0.8437591702072232    0.5708408652189908 Br
   0.1583319957481351    0.6562401464399369    0.4291594389706713 Br
   0.3416676343361821    0.1562403742242163    0.0708407131241599 Br
   0.3416676343361821    0.1562403742242163    0.4291594389706713 Br
   0.8921016796804320    0.0147098115263659    0.2500000760474155 Br
   0.5273276693067732    0.1602242894924546    0.7500002281422466 O
   0.0273280392224561    0.3397754827232652    0.2500000760474155 O
   0.4726715908618615    0.8397752549389856    0.2500000760474155 O
   0.9726712209461793    0.6602240617081745    0.7500002281422466 O
