Li6 Mn2 Co2 O10
1.0
   2.8253600461119239   -0.0929305286094678    0.0443957274138685
  -1.2475457717222396    4.7286555813455911   -0.9971750910968956
  -0.2019873973135768   -0.1157388019660500   12.4571463436633998
Li Mn Co O
6 2 2 10
direct
   0.2985597423982653    0.5970711218868446    0.0977815782646091 Li
   0.9009625188490059    0.8017811696938524    0.2969084432645672 Li
   0.5008552060718718    0.0018936516911305    0.5101103421251463 Li
   0.0997574676706399    0.2002458647359353    0.7086235730846836 Li
   0.7075707396951234    0.4150626982744939    0.8857706820160965 Li
   0.3923720656115353    0.7843274961992592    0.7939921328700181 Li
   0.0011761357808931    0.0029670372263461    0.9908770812219481 Mn
   0.2004794779183687    0.4006485820242915    0.4013269526402954 Mn
   0.7995678148639195    0.5985930929258408    0.6042879850943026 Co
   0.5996201974984618    0.1993824496598920    0.2009785476051196 Co
   0.7474341941016455    0.4948144861281354    0.7383555556721918 O
   0.6360773298016422    0.2720723834050329    0.0571629043317441 O
   0.2384038935778973    0.4762172689484095    0.2535482238889470 O
   0.8374202557507878    0.6737969002353972    0.4485684470836759 O
   0.4304881704694777    0.8596736103253102    0.6444343438840586 O
   0.0546153705410707    0.1096238846016851    0.8653599050299167 O
   0.9674580254064754    0.9357666084213591    0.1503101298280881 O
   0.5615800030621450    0.1235518149796888    0.3494814735737874 O
   0.1593099318224649    0.3187236921674564    0.5431874965169177 O
   0.3662692739079959    0.7337946843785779    0.9589355877422590 O
