Sn1 H14 C8 O6
1.0
   5.2324501880058154    0.0552925531852228   -0.0397293648362777
  -0.3804105532621594    5.4606212991689214   -1.8033598415620085
   0.1759312994877593   -0.2625975791432527    9.1866628219085662
Sn H C O
1 14 8 6
direct
   0.2657141963037852    0.3322440718045332    0.6807719763621015 Sn
   0.9448417905026792    0.3102922498453892    0.4853085922553375 H
   0.8788728147110988    0.3772509671260364    0.8373462530863327 H
   0.8968198165626953    0.4241960052887582    0.0970394111963046 H
   0.7777146869142173    0.8592694044755027    0.2635592739959589 H
   0.0693569904913048    0.7673540816659310    0.3138202969613398 H
   0.9241919115329952    0.8097905912698036    0.5607487382372368 H
   0.8636532060012418    0.3350260705377331    0.2612714484703306 H
   0.6508627228031326    0.0749495308810079    0.9059324447194604 H
   0.7609398675852088    0.9280946765992173    0.0287678965062252 H
   0.4069586549118459    0.0652538811566013    0.2101044469877360 H
   0.2182079190559597    0.1204085832820513    0.0681284072219711 H
   0.3962753780554684    0.4982964023498614    0.2819467884454456 H
   0.4469472925244800    0.5011533278705486    0.0923063309704654 H
   0.6525056927359287    0.6157681942268989    0.4870345832153133 H
   0.5037696140142371    0.4121102086046046    0.1751122102448496 C
   0.4142029095629465    0.1373877804417825    0.1134206211010386 C
   0.5846560017204120    0.9770223491622647    0.9850113093862776 C
   0.7634440220029041    0.7773975339732370    0.4783752651666404 C
   0.8611458763707207    0.7293347430716265    0.3116460822512190 C
   0.5998475805941063    0.9938838987578779    0.5415315844095756 C
   0.4497865298150277    0.7467371983171085    0.8806153860555433 C
   0.7928021615783104    0.4625665035599476    0.2068301176721989 C
   0.6281573833499074    0.1915594168793644    0.5101009225685365 O
  -0.0070339595845939    0.2386627015675460    0.8061065532939841 O
   0.1300993974590793    0.3567966633263474    0.4876709262311372 O
   0.5808779711946280    0.5491268382289486    0.8155008234549784 O
   0.2157222579778374    0.7313089202732657    0.8444730260865871 O
   0.4168170626235253    0.9793187202494044    0.6360673548939620 O
