Mn2 In2 Cu8
1.0
   2.4674359542657771   -4.2737244372105279    0.0000000000000000
   2.4672281897994668    4.2736044843399750   -0.0000000000000000
  -0.0000000000000000    0.0000000000000000    7.9323494450654097
Mn In Cu
2 2 8
direct
   0.6666689090162492    0.3333376628169530    0.0642116799112058 Mn
   0.3333322831744850    0.6666635183792116    0.5642117148904131 Mn
   0.6666723938801709    0.3333446325338415    0.4373345828580871 In
   0.3333287983105628    0.6666565486623233    0.9373346178372942 In
   0.1697127508963106    0.3394249682294631    0.2504111465315934 Cu
   0.6605915944859508    0.8303126749829292    0.2504088549413337 Cu
   0.1697220570726363    0.8303120176952518    0.2504088549413337 Cu
   0.8302884412944234    0.6605762129667018    0.7504111815108001 Cu
   0.3394095977047826    0.1696885062132357    0.7504088899205406 Cu
   0.8302791351180978    0.1696891635009129    0.7504088899205406 Cu
  -0.0000023957182627   -0.0000047914289863    0.0011249685372970 Cu
   0.0000023957182627    0.0000047914289863    0.5011250035165041 Cu
