Si4 O8
1.0
  -5.1792525784258077   -0.0048677993548674    0.0912828440427656
   0.6829569402874511    5.4889506857566595   -0.0976702013739679
   0.0444816785586338   -2.2059887003140926   -6.0714109760854305
Si O
4 8
direct
   0.6848924688383011    0.7697897634608898    0.7485645102490579 Si
   0.9470176240864716    0.3018851098097611    0.7977924910887090 Si
   0.8424503552408041    0.9005921759677329    0.3517526925420117 Si
   0.3129206089213347    0.7358622161588073    0.0452754685802305 Si
   0.9528506577920921    0.1827559528954997    0.5304710434000177 O
   0.8301562222629953    0.0631955035274771    0.8799154920864943 O
   0.7588224729049802    0.7043424727260392    0.4929759933245632 O
   0.5718223752285823    0.8723956304227976    0.2080579821337649 O
   0.0753443372841781    0.8453154470652485    0.1885991471616562 O
   0.2216997982089483    0.4206067270405319    0.9495513023521541 O
   0.3778502708097198    0.7918330266713551    0.8117840046988729 O
   0.7715455640613794    0.5389003524420288    0.8316429591280069 O
