Rb2 V2 Cl6
1.0
   3.6223668751830336   -6.2741228433321012   -0.0000000000000000
   3.6223668751830336    6.2741228433321012    0.0000000000000000
  -0.0000000000000000    0.0000000000000000    5.2060614079912790
Rb V Cl
2 2 6
direct
   0.6666673557917192    0.3333335068533619    0.7499997971607753 Rb
   0.3333335068533619    0.6666673557917192    0.2499999323869251 Rb
   0.0000000000000000    0.0000000000000000    0.4999998647738502 V
   0.0000000000000000    0.0000000000000000    0.0000000000000000 V
   0.8341234348212320    0.1658774278238494    0.2499999323869251 Cl
   0.1658770973103119    0.3317528672200754    0.7499997971607753 Cl
   0.6682479954250058    0.8341237653347691    0.7499997971607753 Cl
   0.3317528672200753    0.1658770973103119    0.2499999323869251 Cl
   0.1658774278238493    0.8341234348212319    0.7499997971607753 Cl
   0.8341237653347692    0.6682479954250059    0.2499999323869251 Cl
