Al2 Ni4 O8
1.0
   5.0207357717175682    0.0413334553541849    2.8306312432853242
   1.6727686193882698    4.7340615802235329    2.8306312406070164
   0.0579348324371393    0.0413334552675594    5.7634106598140322
Al Ni O
2 4 8
direct
   0.6250022695411191    0.6250006729355817    0.6250017777789234 Al
   0.3749984851470768    0.3749975271910958    0.3749981900920620 Al
   0.0000001947075453    0.4999998324568433   -0.0000001209693212 Ni
   0.0000000000000000    0.0000000000000000    0.0000000000000000 Ni
   0.5000005459449426   -0.0000003680079822   -0.0000001952518481 Ni
  -0.0000003633083898   -0.0000003643855221    0.5000003001566621 Ni
   0.2398640949423136    0.7533813499666242    0.7533825043242055 O
   0.2466164849880932    0.2466158538814605    0.7601362132707208 O
   0.2466170580890877    0.7601352969718104    0.2466165398345289 O
   0.2466009149228559    0.2466002849662826    0.2466007208922641 O
   0.7533832696986247    0.7533813462462908    0.2398637546008970 O
   0.7601366597462197    0.2466158501611200    0.2466164635464244 O
   0.7533826965987456    0.2398629031563323    0.7533824280362496 O
   0.7533998397653402    0.7533979151603953    0.7533992469787220 O
