Be1 Co1 Rh2
1.0
  -1.7758124942110627    1.7758124942110627    3.7651062568551992
   1.7758124942110627   -1.7758124942110627    3.7651062568551992
   1.7758124942110627    1.7758124942110627   -3.7651062568551992
Be Co Rh
1 1 2
direct
   0.5000004970835542    0.5000004970835542    0.0000000000000000 Be
   0.7499995462685725    0.2500002485417771    0.4999992977267953 Co
   0.0000000000000000    0.0000000000000000    0.0000000000000000 Rh
   0.2500002485417771    0.7499995462685725    0.4999992977267953 Rh
