Na4 P2 S6
1.0
   6.4563580337518207   -0.0162797530352276    0.9770878565964641
  -3.2731828941945516    5.5651682662344326    0.9770878565964638
  -0.0010191912276462   -0.0017766469791625    7.5184344457472871
Na P S
4 2 6
direct
   0.3376612352987939    0.6623394551331461    0.0000001953586059 Na
   0.6623396544129043    0.3376608147653122    0.0000002241125078 Na
   0.1849045373390260    0.8150957394829635    0.4999999534544705 Na
   0.8150959208687835    0.1849039265061533    0.5000000092649591 Na
   0.0547910160642823    0.0547908372250116    0.8403377878521106 P
   0.9452094421435271    0.9452088287641052    0.1596621748673192 P
   0.7907881544581243    0.7907875342730811    0.7542934701933312 S
   0.2092123037496852    0.2092121317160358    0.2457064925260986 S
   0.3790359066614195    0.0742863514049806    0.7669739067947842 S
   0.0742867279596933    0.3790357377795504    0.7669738798058392 S
   0.6209645515463901    0.9257133145841367    0.2330260559246456 S
   0.9257137302481167    0.6209639282095666    0.2330260829135906 S
