Li4 Tl2
1.0
  -4.6875719738355395   -0.0000000029888117    0.0000000000000000
  -0.0000000000000000   -0.0000000000000000   -4.7993094791602102
   2.3437864822790511   -5.0412254771637972    0.0000000000000000
Li Tl
4 2
direct
   0.2430000209952184    0.7500000813929263    0.4860009760586683 Li
   0.7569992557793706    0.2500000271309754    0.5139999205184468 Li
   0.5818381008224264    0.7500000813929263    0.1636769373019471 Li
   0.4181611759521623    0.2500000271309754    0.8363239592751675 Li
   0.9013746792653092    0.7500000813929263    0.8027503224542964 Tl
   0.0986245975092800    0.2500000271309754    0.1972505741228183 Tl
