Al4 Ni15 Sn1
1.0
   3.5982511010665590   -0.0000000000000000    0.0000000000000002
   0.0000000000000006    3.5982511010665590    0.0000000000000002
  -0.0000000000000000   -0.0000000000000000   17.8147744861743824
Al Ni Sn
4 15 1
direct
   0.0000000000000000    0.0000000000000000    0.2067500242953739 Al
   0.0000000000000000    0.0000000000000000    0.4021811419660762 Al
   0.0000000000000000    0.0000000000000000    0.5978186062106751 Al
   0.0000000000000000    0.0000000000000000    0.7932497238813777 Al
  -0.0000000000000001    0.4999998469997608    0.6956113315236030 Ni
  -0.0000000000000001    0.4999998469997608    0.4999998740883757 Ni
  -0.0000000000000001    0.4999998469997608    0.3043884166531484 Ni
  -0.0000000000000001    0.4999998469997608    0.1089279189177353 Ni
   0.4999998469997608    0.0000000000000000    0.8910718292590162 Ni
   0.4999998469997608    0.0000000000000000    0.6956113315236030 Ni
   0.4999998469997608    0.0000000000000000    0.4999998740883757 Ni
   0.4999998469997608    0.0000000000000000    0.1089279189177353 Ni
  -0.0000000000000001    0.4999998469997608    0.8910718292590162 Ni
   0.4999998469997607    0.4999998469997608    0.7938626176958150 Ni
   0.4999998469997607    0.4999998469997608    0.5979145311979267 Ni
   0.4999998469997607    0.4999998469997608    0.4020852169788243 Ni
   0.4999998469997607    0.4999998469997608    0.2061371304809363 Ni
   0.4999998469997607    0.4999998469997608   -0.0000000000000000 Ni
   0.4999998469997608    0.0000000000000000    0.3043884166531484 Ni
   0.0000000000000000    0.0000000000000000    0.0000000000000000 Sn
