Li8 Mn2 Co4 O14
1.0
   2.8454339603433723   -0.0064669120645921   -0.0512597700184294
  -1.4773339114498145    8.5213609740947334   -3.9145275128684403
   0.1740609089508663   -0.0385108198254083    9.4818352188114723
Li Mn Co O
8 2 4 14
direct
   0.8636269310086312    0.7270714467980276    0.9389170642770265 Li
   0.1363725312206981    0.2729281725746721    0.0610829933630101 Li
   0.4274391616796340    0.8551848863385448    0.2090636629096983 Li
   0.7158437480463484    0.4318295643882465    0.3576963414738880 Li
  -0.0000001507836132    0.0000000492172788    0.5000002716275344 Li
   0.2841557141829800    0.5681700549844463    0.6423037161661482 Li
   0.5725603005496951    0.1448147330341482    0.7909363947303383 Li
   0.4999992150947666   -0.0000001821975188   -0.0000000915900801 Li
   0.9316330777845128    0.8632182838346578    0.7221124648900312 Mn
   0.0683663844448162    0.1367813355380346    0.2778875927500053 Mn
   0.3566664088262278    0.7132973084470819    0.4287041051960138 Co
   0.6433330534031017    0.2867023109256107    0.5712959524440228 Co
   0.2143994590057342    0.4287970215725538    0.8569327439392684 Co
   0.7856000032235945    0.5712025978001385    0.1430673137007679 Co
   0.7422091556906387    0.4841654930780696    0.7521312363702745 O
   0.3947168626239014    0.7896487405203994    0.8087304010435110 O
   0.6863483323622863    0.3729499119075687    0.9622191271063257 O
   0.9705631607359687    0.9411947319567162    0.1231550145678614 O
   0.2577903065386902    0.5158341262946229    0.2478688212697625 O
   0.5424744132199718    0.0852322853710109    0.3921412771346884 O
   0.8277761837550516    0.6557340924524492    0.5330714192093124 O
   0.1150919746414282    0.2304838481068627    0.6742841066892881 O
   0.3136511298670434    0.6270497074651238    0.0377809305337105 O
   0.6052825996054275    0.2103508788522933    0.1912696565965259 O
   0.8849074875879005    0.7695157712658296    0.3257159509507482 O
   0.1722232784742773    0.3442655269202438    0.4669286384307244 O
   0.4575250490093576    0.9147673340016818    0.6078587805053480 O
   0.0294363014933605    0.0588048874159761    0.8768450430721756 O
