Mg1 Be1 Te2
1.0
   3.8873635704373815    0.0000000000000000    0.0000000000000000
   0.0000000000000000    3.8873635704373815    0.0000000000000000
   0.0000000000000000    0.0000000000000000    6.6270686678982971
Mg Be Te
1 1 2
direct
   0.4999995407636414    0.4999995407636414    0.9206465553241882 Mg
   0.0000000000000000    0.0000000000000000    0.4360168538473148 Be
   0.0000000000000000    0.0000000000000000    0.8005087070691864 Te
   0.4999995407636414    0.4999995407636414    0.3428283862822919 Te
