Er4 Ga12 Pt1
1.0
   7.0083954523213530   -0.0000000000034197   -2.4778419741708269
  -3.5041977249983991    6.0694485021486644   -2.4778419741708273
  -0.0000000000019744   -0.0000000000034197    7.4335259241547949
Er Ga Pt
4 12 1
direct
   0.5000002238363875    0.5000001233932684    0.5000006554727454 Er
   0.0000000000002817    0.0000000000002817    0.5000002741530762 Er
  -0.0000001006091008    0.5000001233927049    0.0000001403828539 Er
   0.5000003244452066    0.0000000000002817    0.0000002409368153 Er
   0.7500004363635411    0.2500000616970568    0.5000007057497261 Ga
   0.7500003860588498    0.5000001233932684    0.2500006388646151 Ga
   0.2500000616139251    0.5000001233932684    0.7500006720808760 Ga
   0.5000002741410787    0.2500000616970567    0.7500007223578566 Ga
   0.5000001735316962    0.7500001850894800    0.2500005885876344 Ga
   0.2975664011047622    0.2975663413277940    0.0000002269357416 Ga
   0.2500000113092338    0.7500001850894800    0.5000006051957647 Ga
   0.7024341879102975    0.0000000000007916    0.7024344557404167 Ga
   0.2975664609806792    0.0000000000003352    0.2975665744393663 Ga
  -0.0000001413420565    0.7024339054581793    0.7024343144754280 Ga
  -0.0000000598755817    0.2975663413277940    0.2975665145964322 Ga
   0.7024340465674492    0.7024339054581792    0.0000005357035969 Ga
   0.0000000000000000    0.0000000000000000    0.0000000000000000 Pt
