Li2 Ag1 Sb1
1.0
   4.0627096155996947    0.0000000014082808    2.3456065673103397
   1.3542362078553782    3.8303588260054782    2.3456065673103397
   0.0000000000000000    0.0000000000000000    4.6912131346206793
Li Ag Sb
2 1 1
direct
   0.2500002314940942    0.2500000765324016    0.2500000448030568 Li
   0.5000004629881883    0.5000001530648033    0.5000000896061136 Li
   0.7500006944822825    0.7500002295972048    0.7500001344091705 Ag
   0.0000000000000000    0.0000000000000000    0.0000000000000000 Sb
