Ba1 Sc1 O3
1.0
   2.9674352155467139    1.7132495205309961    2.4231334910656370
  -2.9674352155467139    1.7132495205309961    2.4231334910656370
  -0.0000000000000000   -3.4264990410619922    2.4231334910656370
Ba Sc O
1 1 3
direct
  -0.0058008177174142   -0.0058008177174142   -0.0058008177174142 Ba
   0.4942274309119923    0.4942274309119923    0.4942274309119923 Sc
   0.4942195211397847   -0.0057733005097771    0.4942197054516390 O
   0.4942197054415493    0.4942197054415494   -0.0057734848014521 O
  -0.0057733005097772    0.4942195211397847    0.4942197054516390 O
