Pr2 Pt2
1.0
   3.7139169578998579    0.0000000000000000   -1.3258878290923404
   0.0000000000000000    4.5780167724244150    0.0000000000000000
  -0.0061297680459004   -0.0000000000000000    5.8472602151827129
Pr Pt
2 2
direct
   0.1367376229374173    0.7500005287620840    0.2734750168378038 Pr
   0.8632631333250051    0.2500001762540280    0.7265247465776796 Pr
   0.4101478291951083    0.7500005287620840    0.8202949713888179 Pt
   0.5898529270673143    0.2500001762540280    0.1797047920266654 Pt
