W2 N1 Cl8
1.0
   6.1526222838072542    0.0154723173381448    0.9408710635245793
   0.8209531627071036    6.2315129791322468    0.0260122356148504
   0.0170646086525396    0.0037129988995919    7.0011540330532789
W N Cl
2 1 8
direct
   0.0531384010430087    0.5973458755053589    0.2318532419938181 W
   0.9468601440902487    0.4026527974147577    0.7681459111700258 W
  -0.0000002248540913    0.4999997615972587   -0.0000001285569957 N
   0.6165587102950602    0.6162326962394891    0.7762955477763099 Cl
   0.8880406082005482    0.3050516479505683    0.4114551684129286 Cl
   0.2834997328345034    0.1987797232442346    0.6872501617664936 Cl
   0.7817280609745165    0.1119718317402865    0.8741080194748643 Cl
   0.2182704841587405    0.8880268411798298    0.1258911336889792 Cl
   0.3834398348381973    0.3837659766806265    0.2237036053875335 Cl
   0.1119579369327086    0.6949470249695477    0.5885439847509146 Cl
   0.7164988122987530    0.8012189496758816    0.3127489913973499 Cl
