Ag3 F1
1.0
   4.0196902546511035   -0.0000000000000000    0.0000000000000000
  -0.0000000000000000    4.0196902546511035   -0.0000000000000000
   0.0000000000000000   -0.0000000000000000    4.0196902546511035
Ag F
3 1
direct
   0.0000000000000000    0.4999999683245365    0.4999999683245365 Ag
   0.4999999683245365    0.0000000000000000    0.4999999683245365 Ag
   0.4999999683245365    0.4999999683245365    0.0000000000000000 Ag
   0.0000000000000000    0.0000000000000000    0.0000000000000000 F
