C16
1.0
   2.5268791988849801   -0.0000000000000000    0.0000000000000000
  -0.0000000000000000    4.1586223727947003    0.0000000000000000
   0.0000000000000000    0.0000000000000000    9.0900880317927051
C
16
direct
   0.2500000792593310    0.9256014540562780    0.1950947868904052 C
   0.7500002377779931    0.4256017393424246    0.3049053213707738 C
   0.7500002377779931    0.0743979753714293    0.8049054296319529 C
   0.2500000792593310    0.5743976900852834    0.6950948951515842 C
   0.7500002377779931    0.6999567723138385    0.1897083836554831 C
   0.2500000792593310    0.1999570575999847    0.3102917246056958 C
   0.2500000792593310    0.3000426571138693    0.8102918328668748 C
   0.7500002377779931    0.8000423718277230    0.6897084919166623 C
   0.7500002377779931    0.9085590138535732    0.5206208118390908 C
   0.2500000792593310    0.4085592991397193    0.9793795129444463 C
   0.2500000792593310    0.0914404155741346    0.4793794046832671 C
   0.7500002377779931    0.5914401302879883    0.0206207035779119 C
   0.7500002377779931    0.5687326425690173    0.4633988893868425 C
   0.2500000792593310    0.0687329278551636    0.0366012188743366 C
   0.2500000792593310    0.4312667868586902    0.5366013271355158 C
   0.7500002377779931    0.9312665015725441    0.9633989976480214 C
