Be1 Tc2 Ru1
1.0
  -1.8008210279239520    1.8008210279239520    4.0511292353293111
   1.8008210279239520   -1.8008210279239520    4.0511292353293111
   1.8008210279239520    1.8008210279239520   -4.0511292353293111
Be Tc Ru
1 2 1
direct
   0.5000000943774741    0.5000000943774741    0.0000000000000000 Be
   0.0000000000000000    0.0000000000000000    0.0000000000000000 Tc
   0.2500000471887370    0.7499997617844865    0.4999997145957494 Tc
   0.7499997617844865    0.2500000471887370    0.4999997145957494 Ru
