In6 Ga2 N8
1.0
   6.9585341913147172   -0.0000000002261764    0.0000000000000004
  -3.4792669906750251    6.0262674433927277    0.0000000000000004
  -0.0000000000000000   -0.0000000000000000    5.6510593219414096
In Ga N
6 2 8
direct
   0.3390273678122236    0.1695143766095284    0.9985811345182314 In
   0.8304850494691236    0.6609726710818956    0.9985811345182313 In
   0.8304851577586739    0.1695143766279728    0.9985811345182313 In
   0.1695140195894405    0.8304860476534706    0.4985810745242948 In
   0.1695141278789908    0.3390277531995478    0.4985810745242948 In
   0.6609718095358910    0.8304860476719149    0.4985810745242948 In
   0.3333329856682379    0.6666669495084493    0.9996472189161608 Ga
   0.6666661916798766    0.3333334747729940    0.4996471589222243 Ga
   0.3539708025349188    0.1769856024644583    0.3859228517712947 N
   0.8230138345770459    0.6460292193724558    0.3859228517712947 N
   0.8230139379276724    0.1769856024820610    0.3859228517712947 N
   0.3333329856682379    0.6666669495084493    0.3468414821485707 N
   0.6666661916798766    0.3333334747729940    0.8468415421425075 N
   0.1769852394204423    0.8230148217993825    0.8859229117652313 N
   0.1769853427710687    0.3539712049089875    0.8859229117652313 N
   0.6460283748131959    0.8230148218169852    0.8859229117652313 N
