Li1 Ti1 O2
1.0
   2.9612091992175964   -0.0000000000000000    0.0000000000000002
   0.0000000000000005    2.9612091992175964    0.0000000000000002
  -0.0000000000000000   -0.0000000000000000    3.9753243843946233
Li Ti O
1 1 2
direct
   0.0000000000000000    0.0000000000000000    0.4999994485488228 Li
   0.5000001352120619    0.5000001352120620   -0.0000000000000001 Ti
   0.0000000000000000    0.0000000000000000    0.0000000000000000 O
   0.5000001352120619    0.5000001352120620    0.4999994485488227 O
