Mn3 As3 Rh3
1.0
   3.2586356374565013   -5.6442193464385175    0.0000000000000000
   3.2586356374565013    5.6442193464385175    0.0000000000000000
   0.0000000000000000    0.0000000000000000    3.6372121867869929
Mn As Rh
3 3 3
direct
   0.5981011037992943    0.9999998743326173    0.4999996993869369 Mn
   0.9999998743326173    0.5981011037992943    0.4999996993869369 Mn
   0.4019010621655639    0.4019010621655639    0.4999996993869369 Mn
   0.0000042164346657    0.0000042164346657    0.4999996993869369 As
   0.3333350861752241    0.6666660050728003    0.0000000000000000 As
   0.6666660050728003    0.3333350861752241    0.0000000000000000 As
   0.2645598887072128   -0.0000038860074391    0.0000000000000000 Rh
  -0.0000038860074391    0.2645598887072128    0.0000000000000000 Rh
   0.7354430043766906    0.7354430043766906    0.0000000000000000 Rh
