Nd4 C4 O16
1.0
   4.9716782262533048    0.0000000000000000    0.0000000000000003
   0.0000000000000012    7.4205060729686476    0.0000000000000004
  -0.0000000000000000    0.0000000000000000    7.9723972853366440
Nd C O
4 4 16
direct
   0.2500000891925529    0.3536536996760445    0.3262487508371937 Nd
   0.2500000891925528    0.8536539642827513    0.1737514194166994 Nd
   0.7500002675776590    0.6463468295373698    0.6737515896705931 Nd
   0.7500002675776591    0.1463465649306628    0.8262489210910873 Nd
   0.2500000891925530    0.3092996932797774    0.6922401129215222 C
   0.2500000891925528    0.8092999578864839    0.8077603978401582 C
   0.7500002675776589    0.6907008359336372    0.3077602275862647 C
   0.7500002675776591    0.1907005713269297    0.1922399426676289 C
   0.4759845210406877    0.8576499149891136    0.8763616189386326 O
   0.0240156573444179    0.3576496503824070    0.6236388918230478 O
   0.0240156573444178    0.8576499149891136    0.8763616189386326 O
   0.4759845210406878    0.3576496503824070    0.6236388918230478 O
   0.5240158357295237    0.1423506142243001    0.1236387215691547 O
   0.9759846994257942    0.6423508788310076    0.3763614486847388 O
   0.2500000891925530    0.2037638146213134    0.8188981311959956 O
   0.7500002675776590    0.4610237057211544    0.9195401294764016 O
   0.7500002675776589    0.7962367145920999    0.1811022093117916 O
   0.7500002675776590    0.2962364499853935    0.3188979609421020 O
   0.5240158357295236    0.6423508788310076    0.3763614486847388 O
   0.7500002675776589    0.9610239703278611    0.5804603812852787 O
   0.2500000891925529    0.5389768234922599    0.0804602110313851 O
   0.2500000891925530    0.0389765588855528    0.4195399592225082 O
   0.2500000891925528    0.7037640792280212    0.6811023795656848 O
   0.9759846994257944    0.1423506142243001    0.1236387215691547 O
