Nd10 Ru4
1.0
   8.7900016218028494    0.0014255454747554    0.9565648709324466
   6.3256447593863525    6.1033063925649822    0.9565648709324466
   0.0136837310363738    0.0055264265769840    7.3561909821037128
Nd Ru
10 4
direct
   0.0177376671210699    0.7964961687543015    0.9150033827559944 Nd
   0.2035032631641358    0.9822618492969158    0.5849952294284834 Nd
   0.9822598113506353    0.2035057394890123    0.0849952391773182 Nd
   0.7964942153075695    0.0177400589463979    0.4150033925048291 Nd
   0.3609325819363508    0.2057090409926050    0.8108356468034036 Nd
   0.7942900555364039    0.6390676396689993    0.6891629172942699 Nd
   0.6390648965353548    0.7942928672507086    0.1891629751299089 Nd
   0.2057074229353015    0.3609342685743148    0.3108357046390427 Nd
   0.5769762898327158    0.4230233689830323    0.7499992820815318 Nd
   0.4230211886389898    0.5769785392602816    0.2499993398517808 Nd
   0.1775562724724848    0.5998197031547586    0.5743970884718638 Ru
   0.4001792564615661    0.8224438573970230    0.9256015053582010 Ru
   0.8224412059992202    0.4001822050885551    0.4256015334614490 Ru
   0.5998182220101391    0.1775580508462905    0.0743971165751116 Ru
