Ho4 Cu4 S8
1.0
   3.9584472836249449    0.0000000000000000    0.0000000000000000
   0.0000000000000000    6.2738746480422645    0.0000000000000000
   0.0000000000000000    0.0000000000000000   13.3955469371358387
Ho Cu S
4 4 8
direct
   0.7499793713465569    0.2511929588708026    0.8663925017331809 Ho
   0.2499790282353745    0.2488066707008317    0.1336077269147551 Ho
   0.7500216579869898    0.7488063002724662    0.3663923874092130 Ho
   0.2500213148758076    0.7511925884424367    0.6336078412387233 Ho
   0.2496663575974918    0.6285718723310618    0.9531614112182600 Cu
   0.7496667007086739    0.8714270163838412    0.0468388174296760 Cu
   0.2503339855136905    0.3714273868122066    0.4531612968942919 Cu
   0.7503343286248729    0.1285722427594277    0.5468389317536443 Cu
   0.2499874431345568    0.4879048687658827    0.7938778957795183 S
   0.7499877862457390    0.0120947608057516    0.2061223328684176 S
   0.2500128999766256    0.5120943903773858    0.2938777814555505 S
   0.7500132430878077    0.9879044983375171    0.7061224471923858 S
   0.2499285689197479    0.0065935570358489    0.9597284160735506 S
   0.7499289120309300    0.4934060725357856    0.0402718125743854 S
   0.2500717741914343    0.9934057021074197    0.4597283017495823 S
   0.7500721173026168    0.5065931866074832    0.5402719268983536 S
