Tb6 B2 W2 O18
1.0
   4.2619976502327503   -7.3819955206661696    0.0000000000000000
   4.2619975987921004    7.3819955503654500   -0.0000000000000000
   0.0000000000000000    0.0000000000000000    5.3866057613964848
Tb B W O
6 2 2 18
direct
   0.3581661199297322    0.0837409929748026    0.7017683759373552 Tb
   0.7255754474187159    0.6418344399453002    0.7017683759373552 Tb
   0.6418344394467000    0.9162595623784221    0.2017679824981742 Tb
   0.9162595710888584    0.2744250947022673    0.7017683759373552 Tb
   0.0837409882875736    0.7255754606509573    0.2017679824981742 Tb
   0.2744251119577160    0.3581661154079247    0.2017679824981742 Tb
   0.0000000000000000    0.0000000000000000    0.8655637558254549 B
   0.0000000000000000    0.0000000000000000    0.3655633623862732 B
   0.6666673794792984    0.3333331758739229    0.2450592851598460 W
   0.3333331798971333    0.6666673794793019    0.7450596785990276 W
   0.4861102831579739    0.6187023490796355    0.9798409229122594 O
   0.1972354171540021    0.4651487505084558    0.5364539013906300 O
   0.7320872473805599    0.1972354068047919    0.0364535079514496 O
   0.8674085047604335    0.4861102732393900    0.4798405294730788 O
   0.0533405256651431    0.8720671993247926    0.8561331630895306 O
   0.8187266358292145    0.9466600173329238    0.8561331630895306 O
   0.1279333781976317    0.1812739217795887    0.8561331630895306 O
   0.2679133119958723    0.8027651485484332    0.5364539013906300 O
   0.1325920546159980    0.5138902821138346    0.9798409229122594 O
   0.8720671811787998    0.8187266335736356    0.3561327696503500 O
   0.3812982019180173    0.8674085072438341    0.9798409229122594 O
   0.1812739235472175    0.0533405380203012    0.3561327696503500 O
   0.8027651422224295    0.5348518048447688    0.0364535079514496 O
   0.9466600337112892    0.1279333560284326    0.3561327696503500 O
   0.5348518105421151    0.7320872393804162    0.5364539013906300 O
   0.4651487488343172    0.2679133159728094    0.0364535079514496 O
   0.6187023574584144    0.1325920481093905    0.4798405294730788 O
   0.5138902762184583    0.3812982062735893    0.4798405294730788 O
