Be2 V1 Pb1
1.0
   3.0522496927461051    0.0000000000000000   -0.0000000000000000
  -0.0000000000000000    3.0522496927461051    0.0000000000000000
   0.0000000000000000    0.0000000000000000    6.3842839433331120
Be V Pb
2 1 1
direct
   0.0000000000000000    0.0000000000000000    0.0279542969491356 Be
   0.5000000503323655    0.5000000503323655    0.1698075754344446 Be
   0.5000000503323655    0.5000000503323655    0.8141281002002451 V
   0.0000000000000000    0.0000000000000000    0.4881091009223543 Pb
