Be2 Mo1 Pt1
1.0
   2.7664259900985622    0.0000000000000000    0.0000000000000000
   0.0000000000000000    2.7664259900985622    0.0000000000000000
  -0.0000000000000000   -0.0000000000000000    6.1816440624470124
Be Mo Pt
2 1 1
direct
   0.0000000000000000    0.0000000000000000    0.7260496113303841 Be
   0.0000000000000000    0.0000000000000000    0.2739497314905593 Be
   0.5000007247440293    0.5000007247440293    0.0000000000000000 Mo
   0.5000007247440293    0.5000007247440293    0.4999996714104717 Pt
