Ba4 La1 Ti1 Nb3 O15
1.0
   5.7896386020494832    0.0000000023776925    0.0000000000000003
  -2.8948198494057245    5.0139737914979285    0.0000000000000004
  -0.0000000000000000    0.0000000000000000   11.7500460227320094
Ba La Ti Nb O
4 1 1 3 15
direct
   0.6666666927787334    0.3333330809551175    0.4230074846602881 Ba
   0.0000000000000000    0.0000000000000000    0.5740638397684356 Ba
   0.3333331443372788    0.6666661623844413    0.0021565655135844 Ba
   0.6666666927787334    0.3333330809551175    0.7934312069635631 Ba
   0.0000000000000000    0.0000000000000000    0.2137679419639067 La
   0.6666666927787334    0.3333330809551175    0.1058373050040804 Ti
   0.3333331443372788    0.6666661623844413    0.6826372701955442 Nb
   0.3333331443372788    0.6666661623844413    0.3095364019331309 Nb
   0.0000000000000000    0.0000000000000000    0.9014305835628309 Nb
   0.8353698682643196    0.1646301418286675    0.0083323223396714 O
   0.1651956362458155    0.3303912099037581    0.8084278029606966 O
   0.1651954324103764    0.8348036387444423    0.8084278029606966 O
   0.6696083643556375    0.8348036385051306    0.8084278029606966 O
   0.5027775269864275    0.0055548114632228    0.1942743842650783 O
   0.5027773283013696    0.4972222158176652    0.1942743842650783 O
   0.4991431749284254    0.9982861607460546    0.6084046478009866 O
   0.1615133686332511    0.3230266760737832    0.3786037710763280 O
   0.1615131603338011    0.8384859056620239    0.3786037710763280 O
   0.6769729040447766    0.8384859054175247    0.3786037710763280 O
   0.8353696637436311    0.6707379589685105    0.0083323223396714 O
   0.4991433759419693    0.5008561630857699    0.6084046478009866 O
   0.0017128821414344    0.5008561633215067    0.6084046478009866 O
   0.9944452230484107    0.4972222155844574    0.1942743842650783 O
   0.3292615463289069    0.1646301420689185    0.0083323223396714 O
