Ba2 Al1 V3 O8
1.0
   0.0000000000000000    3.7963883443261688    0.3189304373013816
   4.0832577097422220    0.0000000000000000    0.0000000000000000
   0.0000000000000000   -0.9505841295373851  -11.4081648812421470
Ba Al V O
2 1 3 8
direct
   0.4392589503573262    0.5000002804449217    0.8425917561378264 Ba
   0.6142010285396288    0.5000002804449217    0.1927122173329714 Ba
   0.2861634294640461    0.5000002804449217    0.5366330395363759 Al
  -0.1661094610715018    0.0000000000000000    0.6321662584426363 V
   0.0260054608544642    0.0000000000000000    0.0161998792168602 V
   0.1976622643070998    0.0000000000000000    0.3597274516018948 V
  -0.1853760836592234    0.5000002804449217    0.5937189305326236 O
   0.3013772482560177    0.0000000000000000    0.5670859259082843 O
   0.5206668837058864    0.0000000000000000    0.0055130847974981 O
   0.9184586679688123    0.0000000000000000    0.8009607315935999 O
   0.2089931252320198    0.5000002804449217    0.3823811326781004 O
   0.7048197643047899    0.0000000000000000    0.3740441960006068 O
   0.1120298607909465    0.0000000000000000    0.1883593088500831 O
   0.0218550878047923    0.5000002804449217    0.0079050894360238 O
