Fe2 Pt2 O4
1.0
   2.8221790542157965   -0.0007141033966190   -0.0003357113752952
   0.0010097623472914    4.7096069981313944   -1.3237464073292873
   0.0007077006597748    0.0798791618012101    6.3141911849887133
Fe Pt O
2 2 4
direct
   0.5000005748235269    0.0000005301821873    0.4999996777438457 Fe
   0.9999997843341190    0.5000012924250818    0.4999992134631951 Fe
   0.0000000000000000    0.0000000000000000    0.0000000000000000 Pt
   0.5000002095109247    0.5000007622437743   -0.0000004642811454 Pt
  -0.0000024417189659    0.1109367409406631    0.3325863980614148 O
   0.4999977564264565    0.6109373244938227    0.3325862973941119 O
   0.0000043405185641    0.8890640844632322    0.6674130183742887 O
   0.5000044773079605    0.3890643806345262    0.6674126242861926 O
