Mg4 Nb4 Fe2 O16
1.0
  -5.1725851702335657   -0.0000244219015574    0.0001142024993915
  -0.0001876688519277   -5.9904168971394016   -0.0009091539958520
   0.1574668977198308    2.9933116605739483    9.5203474349663662
Mg Nb Fe O
4 4 2 16
direct
   0.7545409454831629    0.5882273757893329    0.4590414245886013 Mg
   0.7485337240551427    0.1299439116556660    0.5424286747267737 Mg
   0.2485444034256778    0.4114440625518392    0.5424541544711445 Mg
   0.2545496121466361    0.8697263406572833    0.4590606031750608 Mg
   0.7494085983074201    0.7167299390929778    0.7706967313860184 Nb
   0.7536714771621706    0.9467581918041609    0.2307854091786654 Nb
   0.2536556366292302    0.2829288146175946    0.2307953183990889 Nb
   0.2493902106393840    0.0528994179508463    0.7706998321418035 Nb
   0.2515314471579952    0.6422376733695533    0.0007492042259134 Fe
   0.7515248976131250    0.3574088069002493    0.0007393360326014 Fe
   0.8889981102062234    0.4528187213233357    0.6191353313708553 O
   0.6140826996011499    0.8344260166037502    0.3823522755234822 O
   0.1140751718212989    0.5468525114550158    0.3823535084917877 O
   0.3889955734976473    0.1652411297704194    0.6191383174920780 O
   0.0451835379017091    0.0842780880188548    0.3756443130285810 O
   0.4578892972208209    0.7093893984398572    0.6258337142912858 O
   0.0861656503419519    0.3193930785972124    0.8839393097707544 O
   0.9112006204402335    0.1838629074836707    0.1385185063157791 O
   0.9168819875601808    0.6802643233465991    0.1175418899973367 O
   0.5861762957961371    0.5634744187185499    0.8839395552796705 O
   0.5918522530291174    0.0460773487746009    0.8629680985990827 O
   0.9578888803373072    0.9153843309592319    0.6258400339608617 O
   0.4112089292283884    0.9535689728060508    0.1385241443483559 O
   0.0918581071436949    0.8157937360513323    0.8629695818908777 O
   0.4168741130975169    0.4361611661992473    0.1175396785281590 O
   0.5451855321277834    0.2902759193733325    0.3756553799406660 O
