Lu4 Mg2 Se8
1.0
   7.0084671438657979   -0.0000000024061047    4.0463403618064087
   2.3361560434166782    6.6076455735765629    4.0463403618064087
  -0.0000000000000000   -0.0000000000000000    8.0926807236128173
Lu Mg Se
4 2 8
direct
   0.5000003743250377    0.5000003351291692    0.4999995558571834 Lu
   0.5000002037024256    0.0000000001820698    0.4999998309959674 Lu
   0.0000001706226120    0.5000003349470994    0.4999996801533594 Lu
   0.5000003743250377    0.5000003351291692   -0.0000003994349600 Lu
   0.8750006550688157    0.8750005864760462    0.8749992227500711 Mg
   0.1250000935812594    0.1250000837822923    0.1249998889642959 Mg
   0.2555436333219817    0.2555436132895377    0.7333704042510050 Se
   0.7444571153280936    0.7444570569688006    0.7444558967005457 Se
   0.7444571153280936    0.7444570569688006    0.2666287074633623 Se
   0.2555437963783448    0.7333711653455214    0.2555429520762397 Se
   0.2555436333219817    0.2555436132895377    0.2555432150138214 Se
   0.2666296886965175    0.7444570567947527    0.7444560154847659 Se
   0.7444569522717305    0.2666295049128170    0.7444561596381271 Se
   0.7333710599535578    0.2555436134635856    0.2555430962296009 Se
