Ba1 Zn1 Ag4 O8
1.0
   2.8628137006935361   -4.9585383935904384   -0.0000000000000000
   2.8628137006935361    4.9585383935904384    0.0000000000000000
   0.0000000000000000   -0.0000000000000000    7.0724635311067043
Ba Zn Ag O
1 1 4 8
direct
   0.0000000000000000    0.0000000000000000    0.0000000000000000 Ba
   0.0000000000000000    0.0000000000000000    0.4999997503623251 Zn
   0.3333322996666488    0.6666664076563127    0.7062734287379382 Ag
   0.6666664076563125    0.3333322996666490    0.7062734287379382 Ag
   0.3333322996666488    0.6666664076563127    0.2937260719867120 Ag
   0.6666664076563125    0.3333322996666490    0.2937260719867120 Ag
   0.2809173181367554    0.2809173181367555    0.6773834872995359 O
   0.7190819704364632   -0.0000005812502569    0.6773834872995359 O
  -0.0000005812502570    0.7190819704364633    0.6773834872995359 O
   0.7190813891862061    0.7190813891862063    0.3226160134251145 O
  -0.0000002270724434    0.2809175452091986    0.3226160134251145 O
   0.2809175452091986   -0.0000002270724434    0.3226160134251145 O
   0.3333322996666488    0.6666664076563127    0.0000000000000000 O
   0.6666664076563125    0.3333322996666490    0.0000000000000000 O
