Na1 Zn1 F4
1.0
   3.7784577305129829   -0.0000000000000000   -0.0000000000000000
   0.0000000000000000    3.7784577305129829   -0.0000000000000000
   0.0000000000000000    0.0000000000000000    6.0887661198834584
Na Zn F
1 1 4
direct
   0.0000000000000000    0.0000000000000000    0.0000000000000000 Na
   0.4999999616664909    0.4999999616664909    0.5000002737435658 Zn
   0.4999999616664909    0.0000000000000000    0.5000002737435658 F
   0.0000000000000000    0.4999999616664909    0.5000002737435658 F
   0.4999999616664909    0.4999999616664909    0.1809259331174200 F
   0.4999999616664909    0.4999999616664909    0.8190746143697184 F
