Sr2 Ti2 O6
1.0
   4.8035311478958347    0.0000000007422956   -2.7727819082664227
  -1.6005557749304331    4.5290321548211256   -2.7727819094286557
   0.0086851998935507    0.0122815156917304    5.5622251507863378
Sr Ti O
2 2 6
direct
   0.7500000033660563    0.2499997118739411    0.5000006370807244 Sr
   0.2499996046831711    0.7499994749250539    0.5000003203213134 Sr
   0.4999993616879976    0.4999997622818572   -0.0000000935224636 Ti
   0.0000000000000000    0.0000000000000000    0.0000000000000000 Ti
   0.7729621330253177    0.2729624711495212    0.0000000605623609 O
   0.7270364229118986    0.7729622338511578   -0.0000001548311322 O
   0.2729623004640963    0.2270372907125567   -0.0000000322137950 O
   0.2270365903506777    0.7270370534141928   -0.0000002476072880 O
   0.2500001231806149    0.2499997122585689    0.5000005254622507 O
   0.7499994848686126    0.7499994745404261    0.5000004319397872 O
