Ag2 Sb2 S2
1.0
   3.8462130671456261    0.0000000000000000    0.0000000000000000
   0.0000000000000000    5.4893349745911841    0.0000000000000000
   0.0000000000000000    0.0000000000000000    6.7570954130851275
Ag Sb S
2 2 2
direct
   0.0000000000000000    0.2920892592543151    0.0061168539992505 Ag
   0.4999997668123024    0.7079094545475169    0.5061175542814670 Ag
   0.0000000000000000    0.0640061277228756    0.3855439073612567 Sb
   0.4999997668123024    0.9359925860994199    0.8855438859084180 Sb
   0.4999997668123024    0.5921920296761417    0.1160384951199623 S
   0.0000000000000000    0.4078066841461530    0.6160384736671235 S
