Ti3 O6
1.0
   2.7480356693453820   -4.7597370046495513    0.0000000000000000
   2.7480356693453820    4.7597370046495513   -0.0000000000000000
   0.0000000000000000   -0.0000000000000000    5.9814803803286916
Ti O
3 6
direct
   0.0000002580733041    0.5452491218137344    0.1666669894025798 Ti
   0.5452491218137343    0.0000002580733041    0.8333329470130453 Ti
   0.4547521960221341    0.4547521960221341    0.4999999682078125 Ti
   0.1244353582904253    0.4133430137445234    0.3941330408862859 O
   0.4133430137445234    0.1244353582904253    0.6058668955293391 O
   0.2889082066274156    0.8755660767043878    0.0607990620811192 O
   0.8755660767043878    0.2889082066274156    0.9392008743345057 O
   0.5866584842908807    0.7110935880698849    0.7274660196915185 O
   0.7110935880698849    0.5866584842908807    0.2725339167241064 O
