Sr1 Be1 Te2
1.0
   4.3151379459741985    0.0000000000000000   -0.0000000000000000
   0.0000000000000000    4.3151379459741985    0.0000000000000000
   0.0000000000000000    0.0000000000000000    6.8502206453946215
Sr Be Te
1 1 2
direct
   0.5000001648059378    0.5000001648059378    0.8492847072324573 Sr
   0.0000000000000000    0.0000000000000000    0.3085284461151956 Be
   0.0000000000000000    0.0000000000000000    0.9649227869112724 Te
   0.5000001648059378    0.5000001648059378    0.3772647345087380 Te
