Er4 Te4 As4
1.0
   4.0576429140883068   -0.0000000000000000    0.0000000000000002
   0.0000000000000012    7.4963487678133980    0.0000000000000005
   0.0000000000000000   -0.0000000000000000    9.8546966918224435
Er Te As
4 4 4
direct
   0.2499998204568285    0.7331549933444882    0.8418634166050299 Er
   0.7499994613704861    0.2668451710270799    0.1581369190904929 Er
   0.7499994613704860    0.7668452532128638    0.3418632487572683 Er
   0.2499998204568287    0.2331549111587041    0.6581370869382540 Er
   0.2499998204568286    0.5828813290338664    0.1490177546590532 Te
   0.7499994613704861    0.4171188353377016    0.8509825810364692 Te
   0.7499994613704860    0.9171189175234856    0.6490179225068147 Te
   0.2499998204568287    0.0828812468480823    0.3509824131887079 Te
   0.2499998204568286    0.5995165777387929    0.5403383734102704 As
   0.7499994613704861    0.4004835866327752    0.4596619622852520 As
   0.7499994613704860    0.9004836688185592    0.0403382055625091 As
   0.2499998204568287    0.0995164955530088    0.9596621301330136 As
