Sc1 Br1 O2
1.0
   3.0105572297809196   -0.0000000000000000    0.0000000000000000
  -0.0000000000000000    3.0105572297809196   -0.0000000000000000
   0.0000000000000000   -0.0000000000000000    7.0016063411883209
Sc Br O
1 1 2
direct
   0.5000012592016063    0.5000012592016063    0.5733893352002634 Sc
   0.0000000000000000    0.0000000000000000    0.0647084945287895 Br
   0.0000000000000000    0.0000000000000000    0.5284623195339780 O
   0.5000012592016063    0.5000012592016063    0.8434409671007176 O
