Mg2 Mn3 Cr1 S8
1.0
   6.2640387726965523   -0.0003480036557630    3.6173203978966977
   2.0879189366500066    5.9325963204125847    3.6174251015734917
  -0.0006813425227726   -0.0005350217450978    7.2333655330048554
Mg Mn Cr S
2 3 1 8
direct
   0.8732824280496317    0.8801770941369313    0.8732638960560589 Mg
   0.1267226797040703    0.1198198049073141    0.1267380114207386 Mg
   0.5000016842684182    0.5000010432385746    0.4999965648387495 Mn
   0.4999945466731132    0.4999929079668757    0.0000000748137991 Mn
  -0.0000017608212154    0.5000050336038460    0.5000029134444072 Mn
   0.5000042168388431   -0.0000005435165985    0.5000019048561034 Cr
   0.7357592073003575    0.7439364811694131    0.7357774192098745 S
   0.2642379019895202    0.2560518842912538    0.7154798815741993 S
   0.2627473463077533    0.7117543948802721    0.2627507068384669 S
   0.7154729220261883    0.2560526759356443    0.2642378863837297 S
   0.7372558893964504    0.2882437208020410    0.7372436692469900 S
   0.2845306072261886    0.7439509400442816    0.7357550004403363 S
   0.2642346013380804    0.2560561523031076    0.2642390160994646 S
   0.7357647035521538    0.7439498010370794    0.2845214307204459 S
