Zr6
1.0
  -0.2243396198084375    0.0000000000000000    5.3979025664070175
  -3.2148238593134546    4.1633430227085144    2.5697740406358385
  -3.2148238593134546   -4.1633430227085144    2.5697740406358385
Zr
6
direct
   0.7499994043541451    0.7499861405069927    0.2500127892810862 Zr
   0.2499996793634083    0.2500127501201141    0.7499861013460208 Zr
   0.4258574065197024    0.3236921560698889    0.1762793104455621 Zr
   0.0741419522071142    0.8237195410205728    0.6763066953962460 Zr
   0.5741416771978510    0.6763067345572179    0.8237195801815449 Zr
   0.9258571315104392    0.1762793496065341    0.3236921952308610 Zr
