Ho3 Zr1
1.0
  -2.4043469880154378    2.4043469880154378    4.7881959359000295
   2.4043469880154378   -2.4043469880154378    4.7881959359000295
   2.4043469880154378    2.4043469880154378   -4.7881959359000295
Ho Zr
3 1
direct
   0.7500008385559842    0.2500002121936959    0.5000006263622883 Ho
   0.2500002121936959    0.7500008385559842    0.5000006263622883 Ho
   0.5000004243873919    0.5000004243873919    0.0000000000000000 Ho
   0.0000000000000000    0.0000000000000000    0.0000000000000000 Zr
