Sn2 Br2
1.0
   3.8007242351551764    0.0000000000000000    0.0000000000000000
   0.0000000000000000    3.8007242351551764    0.0000000000000000
   0.0000000000000000    0.0000000000000000    8.0058745684235308
Sn Br
2 2
direct
   0.0000000000000000    0.0000000000000000    0.6194958573697444 Sn
   0.4999997330019196    0.4999997330019196    0.3805033282928078 Sn
   0.0000000000000000    0.0000000000000000    0.1699025494803311 Br
   0.4999997330019196    0.4999997330019196    0.8300971235774823 Br
