Ti1 Tl2 Cl6
1.0
   3.4574298987313155    1.9961479471032784    5.6459583654609196
  -3.4574298987313155    1.9961479471032784    5.6459583654609196
  -0.0000000000000000   -3.9922958942065567    5.6459583654609196
Ti Tl Cl
1 2 6
direct
   0.0000000000000000    0.0000000000000000    0.0000000000000000 Ti
   0.2500000723765114    0.2500000723765114    0.2500000723765115 Tl
   0.7500002171295342    0.7500002171295342    0.7500002171295344 Tl
   0.7591916557183945    0.2408087614667729    0.2408085024961647 Cl
   0.2408087614667729    0.7591916557183945    0.2408085024961648 Cl
   0.7591917870098808    0.7591917870098808    0.2408083748170429 Cl
   0.7591915280392727    0.2408086337876510    0.7591917870098808 Cl
   0.2408086337876510    0.7591915280392727    0.7591917870098808 Cl
   0.2408085024961647    0.2408085024961647    0.7591919146890028 Cl
