Pr2 Y1 Ho1
1.0
  -0.0000000000000000    4.0496315143694046    4.0496315143694046
   4.0496315143694046   -0.0000000000000000    4.0496315143694046
   4.0496315143694046    4.0496315143694046    0.0000000000000000
Pr Y Ho
2 1 1
direct
   0.0000000000000000    0.0000000000000000    0.0000000000000000 Pr
   0.4999998130238023    0.4999998130238023    0.4999998130238023 Pr
   0.7499997195357034    0.7499997195357034    0.7499997195357034 Y
   0.2499999065119012    0.2499999065119012    0.2499999065119012 Ho
