Ba1 Cu2 Sn2
1.0
   3.3084987225749334   -3.3084987225749334   -0.0000000000000000
   3.3084987225749334    3.3084987225749334   -0.0000000000000000
  -3.3084987225749334    0.0000000000000000    5.5499186911748595
Ba Cu Sn
1 2 2
direct
   0.0000000000000000    0.0000000000000000    0.0000000000000000 Ba
   0.7500002520090230    0.2500000589569512    0.5000001179139023 Cu
   0.2500000589569511    0.7500002520090231    0.5000001179139023 Cu
   0.6359933648752456    0.6359933648752457    0.2719863436463550 Sn
   0.3640069460907284    0.3640069460907285    0.7280138921814499 Sn
