Tb2 Mn2 Si2
1.0
   3.9566244293886457   -0.0000000000000000    0.0000000000000000
   0.0000000000000000    3.9566244293886457    0.0000000000000000
   0.0000000000000000   -0.0000000000000000    7.0267265653436315
Tb Mn Si
2 2 2
direct
   0.0000000000000000    0.4999994402566222    0.6693246012030230 Tb
   0.4999994402566222    0.0000000000000000    0.3306758875958987 Tb
   0.0000000000000000    0.0000000000000000    0.0000000000000000 Mn
   0.4999994402566222    0.4999994402566222    0.0000000000000000 Mn
   0.4999994402566222    0.0000000000000000    0.7982076462816783 Si
   0.0000000000000000    0.4999994402566222    0.2017928425172434 Si
