Y2 Au2 O4
1.0
   1.7838943069274131   -3.0897957958075470   -0.0000000000000000
   1.7838943069274131    3.0897957958075470    0.0000000000000000
  -0.0000000000000000    0.0000000000000000   12.1080052176254451
Y Au O
2 2 4
direct
   0.0000000000000000    0.0000000000000000    0.0000000000000000 Y
   0.0000000000000000    0.0000000000000000    0.5000001974881274 Y
   0.3333315660512070    0.6666660196087751    0.2500000987440637 Au
   0.6666660196087751    0.3333315660512070    0.7500002962321912 Au
   0.3333315660512070    0.6666660196087751    0.0823750353574848 O
   0.6666660196087751    0.3333315660512070    0.5823752328456125 O
   0.6666660196087751    0.3333315660512070    0.9176253596187699 O
   0.3333315660512070    0.6666660196087751    0.4176251621306425 O
