Sm6 S2 O2 F10
1.0
   3.7706250186261840    0.0000000000000000    0.0000000000000002
  -0.0000000000000005    8.2959682320546477    4.7074319297105731
  -0.0000000000000000   -0.0070022052980835    9.5896878259782170
Sm S O F
6 2 2 10
direct
   0.0000000000000001    0.5850258100354608    0.1321237997202869 Sm
   0.0000000000000000    0.1311382777469124    0.2720597929350257 Sm
   0.0000000000000000    0.2978167514241381    0.5857317342304604 Sm
   0.5000006605501465    0.4039625458188941    0.8954498360572649 Sm
   0.5000006605501466    0.8775353494059193    0.7146573013759286 Sm
   0.5000006605501466    0.7053531457519613    0.4033450993176746 Sm
   0.0000000000000001    0.6709960243158861    0.6676126658450324 S
   0.5000006605501465    0.3268968562830480    0.3382014607697372 S
   0.0000000000000001    0.3837694791913698    0.0519151694835585 O
   0.0000000000000001    0.5637219374053873    0.3875617088541364 O
   0.5000006605501466    0.6228372562702069    0.9523712162380162 F
   0.0000000000000001    0.8436971937683928    0.8800820539973547 F
   0.0000000000000001    0.8868365059457094    0.2721190131884189 F
   0.0000000000000000    0.2724444888319163    0.8401285435377768 F
   0.5000006605501465    0.1427894452649503    0.1181602826259188 F
   0.5000006605501465    0.1212733175442194    0.7170088874517370 F
   0.5000006605501466    0.7310472923113869    0.1472534555090088 F
   0.0000000000000000    0.0476109476856666    0.5652808037827206 F
   0.5000006605501466    0.4308295364075188    0.6263244464516833 F
   0.5000006605501466    0.9544206261893005    0.4326126332344452 F
