Zn4 Co4 O12
1.0
   6.4051279401461567   -0.0736619155555024    0.1181134126003950
  -0.5343932675444751    6.3832216376844437   -0.1181134096259131
  -0.6330415139280022    0.5890142002184839    4.9696006072843533
Zn Co O
4 4 12
direct
   0.2193762531922405    0.5877166004248117    0.6962370011542839 Zn
   0.4122834288472428    0.7806240315757058    0.1962370682111115 Zn
   0.5877175743150012    0.2193753803440633    0.8037627711711698 Zn
   0.7806247499700040    0.4122828114949571    0.3037628382279972 Zn
   0.0858630935765790    0.0858624178441175    0.7499998922385100 Co
   0.2545621474005380    0.2545617460341101    0.2499999597582045 Co
   0.7454388557617062    0.7454376658856590    0.7499998796240768 Co
   0.9141379095856655    0.9141369940756513    0.2499999471437713 Co
   0.8149825810110636    0.0189155147423070    0.8886026027834615 O
   0.7318999284555697    0.4788966326527136    0.6555668810990715 O
   0.5211033867981603    0.2681006611805460    0.1555669558766387 O
   0.6658924478385806    0.8735277254635035    0.4072084569521722 O
   0.3341085553236641    0.1264716864562654    0.5927913824301093 O
   0.1264723573577661    0.3341076495957918    0.9072083965227988 O
   0.2681010747066745    0.5211027792670548    0.3444329582832100 O
   0.1850184221511803    0.9810838971774620    0.1113972365988194 O
   0.8735286458044782    0.6658917623239768    0.0927914428594826 O
   0.0189163499999102    0.8149815486356905    0.6113971690293876 O
   0.4788976163640841    0.7318987507392226    0.8444328835056426 O
   0.9810846531623337    0.1850178632840779    0.3886026703528936 O
