Mg1 Tl1 F2
1.0
   3.0882633291941275    0.0000000000000000    0.0000000000000000
   0.0000000000000000    3.0882633291941275    0.0000000000000000
   0.0000000000000000    0.0000000000000000    7.1752680875112116
Mg Tl F
1 1 2
direct
   0.4999993534885977    0.4999993534885977    0.5618590945549761 Mg
   0.0000000000000000    0.0000000000000000    0.0942447444546751 Tl
   0.0000000000000000    0.0000000000000000    0.5372983698463900 F
   0.4999993534885977    0.4999993534885977    0.8165977113383718 F
