Li1 Ho2 Al1
1.0
   0.0000043100033430    3.6040924398151954    3.6040894687962943
   3.6040814773319476    0.0000044820300250    3.6040892969547151
   3.6040813795904212    3.6040921704128746    0.0000055725634792
Li Ho Al
1 2 1
direct
   0.7500003891488661    0.7500008400413183    0.7499977197734031 Li
   1.0000001406469308    0.0000020396767831    0.9999971930089644 Ho
   0.5000009559793898    0.4999998740301685    0.4999991692244288 Ho
   0.2500001294203858    0.2500003632628366    0.2499992394893803 Al
