Li6 Co4 O10
1.0
   7.4444677191216915   -0.0231817027694705    0.8107124785864449
  -5.9993616735306308    4.4077541359018575    0.8107124785864449
  -0.0008150088993309   -0.0024728050676049    4.9344710878565383
Li Co O
6 4 10
direct
   0.0953281509592545    0.9046708492798959    0.4999995517257921 Li
   0.4999999638750295    0.5000000416568731    0.4999993865604960 Li
   0.9046717767908046    0.0953292340338500    0.4999992213951998 Li
   0.3006100682386656    0.6993894419653922    0.4999994679407407 Li
   0.6993898595113934    0.3006106413483538    0.4999993051802513 Li
   0.0000000000000000    0.0000000000000000    0.0000000000000000 Li
   0.8017226047122540    0.1982779118802197   -0.0000005871742601 Co
   0.1982774814630778    0.8017215360405310   -0.0000003408803761 Co
   0.5982746186586650    0.4017253925247853   -0.0000005041377208 Co
   0.4017254675166669    0.5982740553959655   -0.0000004239169154 Co
   0.0599660044059720    0.4592331518480789    0.2172093497222066 O
   0.3581708720826040    0.1440078937871175    0.7756784985161668 O
   0.7200171808134612    0.7200173331855874    0.7708637352456221 O
   0.1440071722831419    0.3581710615573938    0.7756785859262848 O
   0.5407662867023229    0.9400335762398282    0.7827895863583871 O
   0.9400339233440870    0.5407669314656675    0.7827894233987854 O
   0.8559927554669173    0.6418290217563520    0.2243201871947071 O
   0.2799827469365979    0.2799827501281587    0.2291350378753701 O
   0.6418290556674547    0.8559921895266287    0.2243202746048251 O
   0.4592336410477365    0.0599665070739179    0.2172091867626049 O
