Be1 Br1 Cl2
1.0
   3.0365255380409493   -0.0000000000000000    0.0000000000000000
   0.0000000000000000    3.0365255380409493    0.0000000000000000
  -0.0000000000000000   -0.0000000000000000    8.8717129967504729
Be Br Cl
1 1 2
direct
   0.0000000000000000    0.0000000000000000    0.4765050094147939 Be
   0.5000007347145602    0.5000007347145602    0.6740417108015745 Br
   0.0000000000000000    0.0000000000000000    0.0141618834495224 Cl
   0.5000007347145602    0.5000007347145602    0.3352918896530808 Cl
