Na3 Sb1
1.0
   5.1699993231615684   -0.0000000000061148   -0.0000000000000001
  -2.5849996616417306    4.4773507513958632    0.0000000000000001
   0.0000000000000001   -0.0000000000000000    7.0895319448499414
Na Sb
3 1
direct
   0.3333343880068118    0.6666673408563892    0.7826399542969259 Na
   0.0000000000000000    0.0000000000000000    0.0000000000000000 Na
   0.3333343880068118    0.6666673408563892    0.2173597713760862 Na
   0.6666673541836015    0.3333336703791608    0.0000000000000000 Sb
