Ti2 Co1 Te4
1.0
   7.0055540194204911   -1.9252484938768568   -0.0300520942919212
   7.0055540194204911    1.9252484938768568   -0.0300520942919212
  -3.0182160633003292    0.0000000000000000    5.8929377443576012
Ti Co Te
2 1 4
direct
   0.2508916756847026    0.2508916756847026    0.2666255501696695 Ti
   0.7491076196134122    0.7491076196134122    0.7334620964838350 Ti
   0.0000008843905144    0.0000008843905144    0.0000435318297774 Co
   0.3812714301006273    0.3812714301006273    0.0448948537118608 Te
   0.1103687710621966    0.1103687710621966    0.4484461848531824 Te
   0.8896303172380688    0.8896303172380688    0.5516411174330510 Te
   0.6187274403127682    0.6187274403127682    0.9551899272984776 Te
