Dy4 Ge8 Pt4
1.0
  -2.1630915641614896    4.3853643748032569    8.2637407846722333
   2.1630915641614896   -4.3853643748032569    8.2637407846722333
   2.1630915641614896    4.3853643748032569   -8.2637407846722333
Dy Ge Pt
4 8 4
direct
   0.7385803150215542    0.0000000000000000    0.7385803150215542 Dy
   0.2614186873867109   -0.0000000000000000    0.2614186873867109 Dy
   0.2995553536906684    0.7995549921337384    0.4999996384430702 Dy
   0.7004441000366464    0.2004445988325140    0.4999995012041324 Dy
   0.9272220033772363    0.4272225021731039    0.4999995012041324 Ge
   0.0727774503500783    0.5727770887931485    0.4999996384430702 Ge
   0.4263481894170077    0.4263481894170078   -0.0000000000000000 Ge
   0.5736517156293565    0.5736517156293565   -0.0000000000000000 Ge
   0.3502319203264773    0.2007539006003435    0.1494780197261479 Ge
   0.9487240241721612    0.7992460044460210    0.1494780197261479 Ge
   0.0512754295551529    0.2007535865202315    0.8505211199210545 Ge
   0.6497675334008373    0.7992456903659091    0.8505211199210544 Ge
   0.6030933538940163    0.3524869632303355    0.2506063906636881 Pt
   0.8981193324797166    0.6475129418160287    0.2506063906636881 Pt
   0.1018801212475977    0.3524866491502235    0.7493927489835142 Pt
   0.3969060998332982    0.6475126277359168    0.7493927489835142 Pt
