Na2 Nb6 Te8 O32
1.0
   0.0000000000000000    6.6461384121683693    0.0156982211232449
   7.5213950498873787    0.0000000000000000    0.0000000000000000
   0.0000000000000000   -3.0244588861768804  -13.9362787216603934
Na Nb Te O
2 6 8 32
direct
   0.5000000275023655    0.5000003290687823    0.4999999820729162 Na
   0.5000000275023655    0.0000000000000000    0.4999999820729162 Na
   0.0784078535749095    0.4989776744034585    0.2756010338786070 Nb
   0.0784078535749095    0.0010226546653240    0.2756010338786070 Nb
   0.9215922014298210    0.5010229837341063    0.7243989302672248 Nb
   0.0000000000000000    0.5000003290687823    0.0000000000000000 Nb
   0.9215922014298210    0.9989780034722407    0.7243989302672248 Nb
   0.0000000000000000    0.0000000000000000    0.0000000000000000 Nb
   0.4188236268932746    0.2500001645343912    0.7119644242909307 Te
   0.9471511399001986    0.2500001645343912    0.4977756377430341 Te
   0.5053578798824232    0.7500004936031734    0.0034461308699278 Te
   0.4136150745976510    0.7500004936031734    0.7234986196623111 Te
   0.0528489151045323    0.7500004936031734    0.5022243264027979 Te
   0.5863849804070802    0.2500001645343912    0.2765013444835211 Te
   0.4946423010339365    0.2500001645343912   -0.0034462583097363 Te
   0.5811764281114571    0.7500004936031734    0.2880355398549020 Te
   0.0512732449573503    0.4586389674318966    0.1429263061369990 O
   0.2986492243747219    0.4401489203144370    0.0029749051192479 O
   0.1240051277945385    0.9418469476781878    0.4277477377572929 O
   0.7013508306300089    0.9401492493832195    0.9970250590265848 O
   0.6193685344446694    0.2500001645343912    0.1250499423229047 O
   0.0853849610421730    0.7500004936031734    0.0235276073943262 O
   0.6435819328853180    0.2500001645343912    0.4219438092913092 O
   0.2986492243747219    0.0598514087543455    0.0029749051192479 O
   0.1240051277945385    0.5581540395281592    0.4277477377572929 O
   0.7013508306300089    0.5598517378231275    0.9970250590265848 O
   0.9146150939625579    0.2500001645343912    0.9764723567515063 O
   0.6169442792780142    0.0616963685904027    0.7035051748442894 O
   0.3830557757267170    0.9383042895471616    0.2964947893015433 O
   0.8759949272101928    0.4418466186094050    0.5722522263885393 O
   0.9875370940967689    0.7500004936031734    0.2595990182724795 O
   0.7795221155328397    0.0547816847479247    0.2831010856290068 O
   0.6169442792780142    0.4383039604783800    0.7035051748442894 O
   0.0512732449573503    0.0413613616368856    0.1429263061369990 O
   0.8759949272101928    0.0581537104593770    0.5722522263885393 O
   0.2204779394718921    0.9452189733896399    0.7168988785168254 O
   0.9487268100473808    0.5413616907056682    0.8570736580088336 O
   0.3564181221194128    0.7500004936031734    0.5780561548545234 O
   0.9487268100473808    0.9586392965006787    0.8570736580088336 O
   0.6965773573247755    0.7500004936031734    0.4197462696536618 O
   0.3806315205600621    0.7500004936031734    0.8749500218229281 O
   0.1498943870737028    0.2500001645343912    0.3161517583649859 O
   0.3034226976799551    0.2500001645343912    0.5802536944921709 O
   0.7795221155328397    0.4452186443208577    0.2831010856290068 O
   0.3830557757267170    0.5616966976591854    0.2964947893015433 O
   0.0124629609079625    0.2500001645343912    0.7404009458733524 O
   0.8501056679310290    0.7500004936031734    0.6838482057808467 O
   0.2204779394718921    0.5547820138167071    0.7168988785168254 O
