Cr4 Cd1 Cu1 O8
1.0
   5.2111896159238507   -0.0000000000000000    3.0086817275518185
   1.7370632053079500    4.9131566872915649    3.0086817275518185
  -0.0000000000000000   -0.0000000000000000    6.0173634551036352
Cr Cd Cu O
4 1 1 8
direct
   0.1281859624513266    0.6239379283558582    0.6239369804077410 Cr
   0.6239374459947792    0.1281865634368585    0.6239369210955146 Cr
   0.6239370296468713    0.6239379283558582    0.1281860738085507 Cr
   0.6239370296468713    0.6239379283558582    0.6239368198113865 Cr
   0.0000000000000000    0.0000000000000000    0.0000000000000000 Cd
   0.2499998084673849    0.2500001685631380    0.2499997243902609 Cu
   0.4331808396898240    0.8556067347848370    0.8556053514792331 O
   0.8556058571502645    0.4331818184031387    0.8556053009398620 O
   0.8556055023842615    0.8556067347848370    0.4331808256273872 O
   0.8556055023842615    0.8556067347848370    0.8556052146366416 O
   0.8311847373603536    0.3896052615910984    0.3896044263353152 O
   0.3896043295573656    0.8311855637318020    0.3896044791664574 O
   0.3896047004106765    0.3896052615910984    0.8311843202371023 O
   0.3896047004106765    0.3896052615910984    0.3896045693832051 O
