Nb2 Ru6
1.0
   5.5911166040718721    0.0000000000000000    0.0000000000000000
  -2.7955583020359360    4.8420487638655718    0.0000000000000000
   0.0000000000000000    0.0000000000000000    4.4008807669993395
Nb Ru
2 6
direct
   0.6666673462384775    0.3333330850971217    0.2499999564292138 Nb
   0.3333330850969457    0.6666671701944892    0.7499998692876414 Nb
   0.8346991512284591    0.1653013688498697    0.7499998692876414 Ru
   0.3306038250012580    0.1653013688498697    0.7499998692876414 Ru
   0.8346990624857296    0.6693965175916116    0.7499998692876414 Ru
   0.1653012801069641    0.8346988864417411    0.2499999564292138 Ru
   0.6693966063341651    0.8346988864417411    0.2499999564292138 Ru
   0.1653013688496936    0.3306037376999992    0.2499999564292138 Ru
