Mg1 Re2 As1
1.0
   0.0000000000000000    3.1661897064937059    3.1661897064937059
   3.1661897064937059    0.0000000000000000    3.1661897064937059
   3.1661897064937059    3.1661897064937059   -0.0000000000000000
Mg Re As
1 2 1
direct
   0.2500000231750402    0.2500000231750402    0.2500000231750401 Mg
   0.0000000000000000    0.0000000000000000    0.0000000000000000 Re
   0.7500000695251204    0.7500000695251204    0.7500000695251202 Re
   0.5000000463500803    0.5000000463500803    0.5000000463500801 As
