Sr3 Nb1 Co1 O7
1.0
   3.9098653328164326   -0.0046856179630691    0.7034118372979240
  -0.1247222120098036    3.9049109389581385    0.7196726401321334
   0.1099183738430876    0.0695147329616998   10.6071827338746658
Sr Nb Co O
3 1 1 7
direct
   0.3081385781461385    0.3080855800815175    0.3838378058287803 Sr
   0.6784951091473519    0.6785295551280481    0.6429279831600394 Sr
   0.5155876592385907    0.5156317066064802    0.9687224022091175 Sr
   0.9055424370376837    0.9054847294623989    0.1890392704871210 Nb
   0.1000461763314793    0.1000805677181727    0.7998221635500997 Co
   0.5951459986795519    0.0951809658260720    0.8096241251028750 O
   0.0951263797289682    0.5951792352021039    0.8096243850476303 O
   0.4015548772180606    0.9015122774429546    0.1970001238953727 O
   0.9016042719682758    0.4015068327248932    0.1969983088804456 O
   0.0007896523860343    0.0007939301557842   -0.0015882234612118 O
   0.1936050821920149    0.1936416580839835    0.6126938343110339 O
   0.8043755845528777    0.8043562739395050    0.3912941665079427 O
