Mg6 Nb1 Ga1
1.0
   6.2367487847838525    0.1714235905845302    0.0000000000000000
  -2.9699173608406291    5.1440465021893029    0.0000000000000000
   0.0000000000000000    0.0000000000000000    4.9509065648957051
Mg Nb Ga
6 1 1
direct
   0.6550084830263040    0.3269307539029890    0.2500001734583480 Mg
   0.6550084340091441    0.8280767304304596    0.2500001734583480 Mg
   0.3367541722720040    0.1771396236659923    0.7500005203750439 Mg
   0.3367541250810704    0.6596157161490830    0.7500005203750439 Mg
   0.8479708524481003    0.1739860229459746    0.7500005203750439 Mg
   0.8553494355314063    0.6776751786394725    0.7500005203750439 Mg
   0.1506023535966683    0.3253003207155304    0.2500001734583480 Nb
   0.1625512112250311    0.8312756124953398    0.2500001734583480 Ga
