Sr2 In4 Te8
1.0
   6.9079711691306889    0.1760949550798377    0.0000000000000000
  -3.2774976100519067    6.0835090232086877    0.0000000000000000
   0.0000000000000000    0.0000000000000000   11.9038656413906416
Sr In Te
2 4 8
direct
   0.4999995928520199    0.4999996848122440    0.7500002746130642 Sr
   0.4999995928520199    0.4999996848122440    0.2500000915376880 Sr
   0.2288511177490817    0.7648039509095329    0.0000000000000000 In
   0.7711480679549579    0.2351954187149551    0.0000000000000000 In
   0.7648035248474028    0.2288508744404656    0.5000001830753761 In
   0.2351956608566370    0.7711484951840224    0.5000001830753761 In
   0.6585123653232193    0.7892937616025926    0.0000000000000000 Te
   0.3414868203808202    0.2107056080218954    0.0000000000000000 Te
   0.7892935467934017    0.6585124167951916    0.5000001830753761 Te
   0.2107056389106378    0.3414869528292965    0.5000001830753761 Te
   0.4999997259194580   -0.0000003993214621    0.6859793472145937 Te
  -0.0000001330674381    0.5000000841337062    0.8140212020115345 Te
   0.4999997259194580   -0.0000003993214621    0.3140210189361582 Te
  -0.0000001330674381    0.5000000841337062    0.1859791641392177 Te
