La12 Ir4
1.0
   6.5966055529348733    0.0000000000000000    0.0000000000000000
  -0.0000000000000000    7.4390929480828341    0.0000000000000000
   0.0000000000000000    0.0000000000000000   10.1212686039424735
La Ir
12 4
direct
   0.8313995435938800    0.1729804526526823    0.9336616694951957 La
   0.3313992065216469    0.3270193491993138    0.0663384684378621 La
   0.1686011305505862    0.8270191510513102    0.4336616005286668 La
   0.6686014676228189    0.6729802545046786    0.5663385374043909 La
   0.1686011305505862    0.8270191510513102    0.0663384684378621 La
   0.6686014676228189    0.6729802545046786    0.9336616694951957 La
   0.8313995435938800    0.1729804526526823    0.5663385374043909 La
   0.3313992065216469    0.3270193491993138    0.4336616005286668 La
   0.3529374860247979    0.0375076885781671    0.7500001034497933 La
   0.8529378230970305    0.4624921132738293    0.2500000344832645 La
   0.6470631881196683    0.9624919151258257    0.2500000344832645 La
   0.1470628510474351    0.5375074904301631    0.7500001034497933 La
   0.5690805916591003    0.3792128165350550    0.7500001034497933 Ir
   0.0690802545868743    0.1207869853169413    0.2500000344832645 Ir
   0.4309200824853588    0.6207867871689374    0.2500000344832645 Ir
   0.9309204195575986    0.8792126183870514    0.7500001034497933 Ir
