Mg2 Ti6
1.0
   4.7433035567124353    0.0000000000000000    0.0000000000000000
   0.0000000000000000    5.8088785276011334    0.0000000000000000
   0.0000000000000000    0.0000000000000000    5.1702110994875659
Mg Ti
2 6
direct
   0.0000000000000000    0.0000000000000000    0.1566188043680327 Mg
   0.4999996250806644    0.5000001267369304    0.8433809829738100 Mg
   0.0000000000000000    0.2518851103808551    0.6523012204595373 Ti
   0.0000000000000000    0.5000001267369304    0.1663787523481185 Ti
   0.0000000000000000    0.7481151430930054    0.6523012204595373 Ti
   0.4999996250806644    0.0000000000000000    0.8336210349937312 Ti
   0.4999996250806644    0.2481150163560752    0.3476985668823053 Ti
   0.4999996250806644    0.7518852371177855    0.3476985668823053 Ti
