Ca2 Ho2 Mn4 O12
1.0
   5.2712706651883350    0.0000000000000000    0.0000000000000000
   0.0000000000000000    5.4714086249707341    0.0000000000000000
   0.0000000000000000    0.0000000000000000    7.5002958626636875
Ca Ho Mn O
2 2 4 12
direct
   0.4885035155598599    0.6970120130367641    0.0000000000000000 Ca
   0.9885034524642250    0.3029882382749838    0.5000002758115405 Ca
   0.0165633091353360    0.1848225306251921    0.0000000000000000 Ho
   0.5165632460397014    0.8151777206865560    0.5000002758115405 Ho
   0.0006348750630712    0.7455832387574781    0.7498778378870402 Mn
   0.0006348750630712    0.7455832387574781    0.2501227137360408 Mn
   0.5006348119674368    0.2544170125542699    0.2498775620754997 Mn
   0.5006348119674368    0.2544170125542699    0.7501229895475813 Mn
   0.7917472341273943    0.0396376492514665    0.7053107215486663 O
   0.6962915381518824    0.5517947583833905    0.7011397835458192 O
   0.6962915381518824    0.5517947583833905    0.2988607680772616 O
   0.5988099910835712    0.2724837227238168    0.0000000000000000 O
   0.4187843216746958    0.2233903963826904    0.5000002758115405 O
   0.1962916012475172    0.4482054929283577    0.7988610438888024 O
   0.2917472972230290    0.9603626020602813    0.7946901058859553 O
   0.1962916012475172    0.4482054929283577    0.2011395077342787 O
   0.7917472341273943    0.0396376492514665    0.2946898300744148 O
   0.0988100541792057    0.7275165285879309    0.5000002758115405 O
   0.2917472972230290    0.9603626020602813    0.2053104457371257 O
   0.9187842585790612    0.7766098549290575    0.0000000000000000 O
