Li8 Mn2 Co4 O14
1.0
   4.7141010058521671   -0.0045290596430209    1.5700964322443736
   0.4877195311969211    6.5195331050885210    3.6693555871546506
   0.0679064312347780    0.0744358392038126    7.4994108429317317
Li Mn Co O
8 2 4 14
direct
   0.4877872866493423    0.7784801326730328    0.1575794369341618 Li
   0.4982740507679337    0.6527400897260454    0.5665654844677078 Li
   0.4945050383791536    0.3584817133533509    0.4322699042476407 Li
   0.4995028643077193    0.2181659072104153    0.8505882326531564 Li
   0.5169496700655162    0.9254889849590258    0.7010598392276091 Li
   0.5036731653085463    0.5081015413231409   -0.0072060106877054 Li
   0.4938529255364956    0.0561094133023912    0.3006456386976398 Li
   0.0031395682702325    0.8498189307496948    0.4363614739886435 Li
   0.9989560287083782    0.9959007318350402    0.0039618491906629 Mn
   0.9961930196588761    0.2835533203006247    0.1480660016666648 Mn
  -0.0006713593231081    0.4304838242619495    0.7135174766940163 Co
   0.0028064134776377    0.1421834017080195    0.5689805909786682 Co
   0.0012658537558028    0.7168124852481531    0.8529647618504286 Co
  -0.0002126059838259    0.5730881140154532    0.2869074939065632 Co
   0.2215749231908040    0.3233774115024518    0.2881772408885038 O
   0.7812686776591808    0.9660586045064276    0.8468436477811110 O
   0.7691576214277553    0.8211436134455761    0.2680265877720023 O
   0.7794513175735575    0.5352464277281727    0.1347570775530137 O
   0.7857177633086443    0.3925281360379591    0.5650984704356392 O
   0.7705639431571066    0.1230765714416906    0.4172205860141751 O
   0.7745659099435133    0.6667010084490058    0.7233235751792483 O
   0.7742814313632633    0.2447003355866829   -0.0000748569886721 O
   0.2265134984737201    0.5932517768440790    0.4370662027378427 O
   0.2200702767573642    0.4674941490322846    0.8633786299066395 O
   0.2202990510224745    0.1767321570547817    0.7214518481174523 O
   0.2287429370991120    0.0501590029743195    0.1299756159581747 O
   0.2216374974333062    0.7528033557524021    0.0076195677056063 O
   0.2301410397993255    0.8973176760599357    0.5848887073500387 O
