Na2 Ni2 P2 O8
1.0
   2.6555904882520731    4.1829651247712540   -0.0000000000000000
  -2.6555904882520731    4.1829651247712540   -0.0000000000000000
   0.0000000000000000   -0.0000000000000000    6.7027679291757885
Na Ni P O
2 2 2 8
direct
   0.3125938190113777    0.3125938190113777    0.7500002317129542 Na
   0.6874073464845328    0.6874073464845328    0.2500000772376514 Na
   0.0000000000000000    0.0000000000000000    0.0000000000000000 Ni
   0.0000000000000000    0.0000000000000000    0.5000001544753028 Ni
   0.3375136927845403    0.3375136927845403    0.2500000772376514 P
   0.6624874727113701    0.6624874727113700    0.7500002317129542 P
   0.2096474570099175    0.6893324242710058    0.2500000772376514 O
   0.3106687412249047    0.7903537084859930    0.7500002317129542 O
   0.2327649247975092    0.2327649247975092    0.4365206569198953 O
   0.7672362406984011    0.7672362406984011    0.5634796520307103 O
   0.2327649247975092    0.2327649247975092    0.0634794975554075 O
   0.7672362406984011    0.7672362406984011    0.9365208113951982 O
   0.7903537084859930    0.3106687412249047    0.7500002317129542 O
   0.6893324242710057    0.2096474570099175    0.2500000772376514 O
