Li1 V2 O4
1.0
   2.4377414921502494   -0.0000476902915812    4.5658169774484767
  -0.0395630968986722    2.8990827940060848    9.9265121706734796
  -0.0395457511386032   -0.0001329832915944    9.9263951841644342
Li V O
1 2 4
direct
   0.5000121014748367    0.5000005111425894    0.4999899494690182 Li
   0.0000366139439523    0.4999944476096015   -0.0000124658450162 V
   0.9999564266868141    0.0000035716845321    0.0000187490886869 V
   0.2530171264384725    0.5000120147719196    0.2667371578856416 O
   0.7469964231184640    0.4999927591272448    0.7332704974293665 O
   0.2700842891182830    0.0000054155021925    0.2535824898349996 O
   0.7298943766903396    0.9999881732812922    0.7464195671242994 O
