Ti1 Fe2 Se4
1.0
   6.0434492774645561   -0.0298754549806682    2.9019167344357291
   5.0481112663207837    3.3227615555351391    2.9019167344357295
   0.0062563408228557    0.0018573957789426    6.1282848356082695
Ti Fe Se
1 2 4
direct
   0.2550920140675499    0.2550917588336589    0.6913961174704910 Ti
   0.0019560350839386    0.0019568574043598    0.9958540089896099 Fe
   0.7415822086018616    0.7415800527162643    0.3108653128279687 Fe
   0.6383992509461250    0.6383972009325615    0.0343629162233874 Se
   0.3604627864859040    0.3604624364629888    0.9897776249634491 Se
   0.8930470201813968    0.8930444763439059    0.4373019237789791 Se
   0.1094647883806523    0.1094648816899248    0.5404422994349780 Se
