Mg4 Si4 O12
1.0
   4.7716237048177668   -0.4359880520201872    1.0097818416850166
   1.0405005813070454    6.1846607975682391    0.8187875871054136
  -0.6505312461008989    0.3317245747886168    6.2825044177214195
Mg Si O
4 4 12
direct
   0.7499994697791329    0.8875833611157267    0.1124163474221503 Mg
   0.7499996766394221    0.2992903479580564    0.7007084174346760 Mg
   0.2500001004368024    0.1124154457526551    0.8875832648976848 Mg
   0.2499998935765134    0.7007084589103254    0.2992911948851591 Mg
   0.4723221398966195    0.6714735678174074    0.8303185724181736 Si
   0.5276774303193161    0.3285252390509740    0.1696810399016613 Si
   0.0276778442619395    0.1696808278727922    0.3285254412852504 Si
   0.9723217259539958    0.8303179789955890    0.6714741710345852 Si
   0.8031843788076929    0.6004231745194691    0.7113091723172045 O
   0.4221655769887355    0.3843420970818868    0.8954416356821286 O
   0.5778339932271995    0.6156567097864947    0.1045579766377062 O
   0.9221650391840240    0.8954414002190652    0.3843429070772864 O
   0.1968151914082431    0.3995756323489126    0.2886904400026307 O
   0.6968148723127510    0.2886899281859235    0.3995757215338271 O
   0.8685538007008077    0.2005890284947736    0.0621669856522986 O
   0.0778345310319114    0.1045574066493165    0.6156567052425490 O
   0.3031846979031846    0.7113088786824577    0.6004238907860087 O
   0.3685542074620080    0.0621667806786493    0.2005892564206487 O
   0.1314457695151286    0.7994097783736073    0.9378326266675371 O
   0.6314453627539274    0.9378320261897322    0.7994103558991870 O
