Na1 H1 Se2
1.0
   4.3322577320723159    0.0000000000000000    0.0000000000000000
   0.0000000000000000    4.3322577320723159    0.0000000000000000
   0.0000000000000000   -0.0000000000000000    5.4237258940952708
Na H Se
1 1 2
direct
   0.5000007731419713    0.5000007731419713    0.6947872275550332 Na
   0.0000000000000000    0.0000000000000000    0.9220934303131613 H
   0.0000000000000000    0.0000000000000000    0.1986508143159799 Se
   0.5000007731419713    0.5000007731419713    0.1944707942786018 Se
