Nb6 Tl4 Cl18
1.0
   9.2633829007522035    0.2809435816730663    2.2924609807629377
  -4.5762592958119894    8.0589728203739490    2.2924609807629377
   0.0736276943287216    0.1310076002539814    9.5332504062927121
Nb Tl Cl
6 4 18
direct
   0.6060200471381842    0.6060200329464188    0.1394133086166063 Nb
   0.3939795744385631    0.3939794842902281    0.8605866500982208 Nb
   0.4568247201811391    0.2721129673931599    0.1420514342459670 Nb
   0.5431749013956083    0.7278865498434869    0.8579485244688594 Nb
   0.7278866056829569    0.5431747778601120    0.8579485407477246 Nb
   0.2721130158937904    0.4568247393765348    0.1420514179671018 Nb
   0.0550557685689256    0.7447886920823915    0.3305522299949113 Tl
   0.9449438530078216    0.2552108251542558    0.6694477287199150 Tl
   0.7447886001275031    0.0550556077397684    0.3305522907818975 Tl
   0.2552110214492447    0.9449439094968783    0.6694476679329288 Tl
   0.1051966844649663    0.3254778581330359    0.0033913603899478 Cl
   0.4239615789863656    0.6449544166976837    0.6703791205368775 Cl
   0.5760380425903816    0.3550451005389625    0.3296208381779487 Cl
   0.1755902468368579    0.1755902116111871    0.3364327294509509 Cl
   0.8244093747398887    0.8244093056254591    0.6635672292638758 Cl
   0.2612180224271896    0.2612179501707930    0.6893895202559095 Cl
   0.7387815991495578    0.7387815670658537    0.3106104384589171 Cl
   0.8948025445718796    0.6745213716638186   -0.0033911955418989 Cl
   0.5957313868965367    0.0169379211216569    0.6780604357031912 Cl
   0.3254778179597745    0.1051966439061623    0.0033913798035897 Cl
   0.9830615233610789    0.4042680953089295    0.3219395740213854 Cl
   0.0169380982156683    0.5957314219277167    0.6780603846934408 Cl
   0.6449544462519596    0.4239614684391769    0.6703791400132454 Cl
   0.4042682346802102    0.9830615961149900    0.3219395230116348 Cl
   0.2812872988542935    0.7187120107196577    0.0000000631486444 Cl
   0.7187119301825526    0.2812872190771974    0.0000001016994046 Cl
   0.6745214110770710    0.8948025858906926   -0.0033912149555407 Cl
   0.3550451753247871    0.5760380487974697    0.3296208187015808 Cl
