Be1 Cu2 Ni1
1.0
  -1.7801424638849421    1.7801424638849421    3.3701083404828993
   1.7801424638849421   -1.7801424638849421    3.3701083404828993
   1.7801424638849421    1.7801424638849421   -3.3701083404828993
Be Cu Ni
1 2 1
direct
   0.7499994310584963    0.2500001231056196    0.4999993079528768 Be
   0.0000000000000000    0.0000000000000000    0.0000000000000000 Cu
   0.2500001231056196    0.7499994310584964    0.4999993079528768 Cu
   0.5000002462112391    0.5000002462112391    0.0000000000000000 Ni
