Ti1 Mn2 Nb1
1.0
  -0.0000000000000000    3.0189141292099455    3.0189141292099455
   3.0189141292099455    0.0000000000000000    3.0189141292099455
   3.0189141292099455    3.0189141292099455   -0.0000000000000000
Ti Mn Nb
1 2 1
direct
   0.7499989741651049    0.7499989741651049    0.7499989741651049 Ti
   0.0000000000000000    0.0000000000000000    0.0000000000000000 Mn
   0.4999993161100699    0.4999993161100699    0.4999993161100699 Mn
   0.2499996580550349    0.2499996580550350    0.2499996580550350 Nb
