Sr1 La1 B12
1.0
   4.1683405313800845    0.0000000000000000    0.0000000000000000
   0.0000000000000000    4.1683405313800845   -0.0000000000000000
   0.0000000000000000    0.0000000000000000    8.3473741378450939
Sr La B
1 1 12
direct
   0.0000000000000000    0.0000000000000000    0.4999997521469012 Sr
   0.0000000000000000    0.0000000000000000    0.0000000000000000 La
   0.2011176703496435    0.4999999362599959    0.2492481275865937 B
   0.2011176703496435    0.4999999362599959    0.7507513767072086 B
   0.4999999362599959    0.4999999362599959    0.3988849650479486 B
   0.4999999362599959    0.4999999362599959    0.8999661465982065 B
   0.4999999362599959    0.2011176703496435    0.2492481275865937 B
   0.4999999362599959    0.2011176703496435    0.7507513767072086 B
   0.4999999362599959    0.4999999362599959    0.1000333576955961 B
   0.4999999362599959    0.4999999362599959    0.6011145392458538 B
   0.4999999362599959    0.7988822021703483    0.2492481275865937 B
   0.4999999362599959    0.7988822021703483    0.7507513767072086 B
   0.7988822021703483    0.4999999362599959    0.2492481275865937 B
   0.7988822021703483    0.4999999362599959    0.7507513767072086 B
