Rb4 Co2 O6
1.0
   5.3639247123686093   -0.0000233044143856    0.0000114416316735
   0.0000287769588342    5.9238058165544523   -2.0122115202308084
  -0.0000143234370994    0.0192524150490400    6.2562051785151525
Rb Co O
4 2 6
direct
   0.7400136161045694    0.1830335628219509    0.5050419190883922 Rb
   0.2400146951980712    0.4949581997090987    0.8169666790456166 Rb
   0.7400134070522066    0.5050421378488011    0.1830337972346151 Rb
   0.2400144830985217    0.8169664762706842    0.4949589278613167 Rb
   0.7399999588356485    0.9278057093776958    0.9278061389965935 Co
   0.2399997959972843    0.0721955300397313    0.0721956970831200 Co
   0.2399433220180338    0.3206566717598184    0.3206574085550134 O
   0.7399423175569458    0.6793438356500421    0.6793436810157402 O
   0.9900139618195498    0.1196982574759637    0.8802542347012360 O
   0.4900147650113215    0.1197463951824798    0.8803026594048952 O
   0.9900134974493511    0.8802543720127508    0.1196983743513501 O
   0.4900143397618120    0.8803024603127946    0.1197467831712027 O
