Ho8 Re4 C8
1.0
   5.0792526806175040    0.0000000000000000    0.0000000000000003
   0.0000000000000011    6.5404731491487542    0.0000000000000004
  -0.0000000000000000   -0.0000000000000000    9.7981622967803386
Ho Re C
8 4 8
direct
   0.2499998680604375    0.4678510353644483    0.7838577326270356 Ho
   0.7499996041813128    0.0321487238923607    0.2838578498316845 Ho
   0.2499998680604374    0.9678507946212572    0.7161419157590182 Ho
   0.7499996041813127    0.5321484831491695    0.2161420329636668 Ho
   0.2499998680604374    0.8203331129833076    0.0557010430171664 Ho
   0.7499996041813127    0.6796661647871191    0.5557009258125176 Ho
   0.2499998680604376    0.3203333537264981    0.4442988397781848 Ho
   0.7499996041813128    0.1796664055303107    0.9442987225735363 Ho
   0.7499996041813127    0.7183463519922330    0.8679050765971515 Re
   0.2499998680604374    0.7816529257781938    0.3679051938018008 Re
   0.7499996041813128    0.2183465927354241    0.6320945717889023 Re
   0.2499998680604376    0.2816531665213847    0.1320946889935505 Re
   0.2499998680604376    0.1755153119737694    0.9477772087449016 C
   0.7499996041813126    0.8244842065398483    0.0522225568458006 C
   0.2499998680604375    0.6755150712305783    0.5522224396411523 C
   0.7499996041813127    0.3244844472830395    0.4477773259495505 C
   0.2499998680604376    0.0486024177260986    0.2588659179733518 C
   0.7499996041813127    0.4513973415307101    0.7588658007687032 C
   0.2499998680604375    0.5486021769829076    0.2411339648219995 C
   0.7499996041813126    0.9513971007875192    0.7411338476173506 C
