Li6 Mn2 Co2 O10
1.0
   4.9002987284287789    0.0053156745259045    1.1542873268344003
   4.0795476472363781    2.7148198610892176    1.1542873268343996
   0.0296202255960609    0.0089724283519064   13.1549968650487763
Li Mn Co O
6 2 2 10
direct
   0.5000000337214492    0.5000003739717211    0.5000002865866250 Li
   0.8977897902566261    0.8977906995368248    0.7108195807307029 Li
   0.3081425409765172    0.3081417827075462    0.9147791112708594 Li
   0.6918575264663818    0.6918589652358960    0.0852214619023902 Li
   0.1022102771862728    0.1022100484066175    0.2891809924425472 Li
   0.0000000000000000    0.0000000000000000    0.0000000000000000 Li
   0.8047076683428255    0.8047088622224942    0.3996765412927498 Mn
   0.1952923991000735    0.1952918857209479    0.6003240318805001 Mn
   0.3983002036484177    0.3983008212578705    0.1811018552834282 Co
   0.6016998637944814    0.6016999266855718    0.8188987178898218 Co
   0.7633356120712580    0.7633369210338219    0.2685357481135572 O
   0.4389879091488693    0.4389883281523029    0.3636117406032924 O
   0.8338861590937428    0.8338871857532232    0.5460987346125064 O
   0.2366644553716410    0.2366638269096202    0.7314648250596925 O
   0.6543026691538203    0.6543026565605027    0.9412429460092143 O
   0.0389637066537980    0.0389635440689986    0.1574755466533872 O
   0.5610121582940295    0.5610124197911390    0.6363888325699574 O
   0.9610363607891010    0.9610372038744436    0.8425250265198623 O
   0.3456973982890782    0.3456980913829389    0.0587576271640358 O
   0.1661139083491561    0.1661135621902188    0.4539018385607442 O
