Zn6 Cu2 P4 O18
1.0
   5.8961743903859505    0.0172139221026982    2.4372367703107720
   0.3603701455955162    5.8851764730652549    2.4372367703107742
   0.0086991740088597    0.0082067538751617    9.7961966649823964
Zn Cu P O
6 2 4 18
direct
   0.7076146878767168    0.3146411239450020    0.1684010785576777 Zn
   0.3146410658838951    0.7076154956715295    0.1684008920282910 Zn
   0.2923846517266688    0.6853593609616707    0.8315999649193930 Zn
   0.6853582737194908    0.2923849892351429    0.8316001514487797 Zn
   0.8452626708433326    0.8452633129991611    0.1126279315752377 Zn
   0.1547366687600530    0.1547371719075115    0.8873731119018331 Zn
   0.8095366973940264    0.1904626243115869    0.5000006686637962 Cu
   0.1904626422093590    0.8095378605950855    0.5000003748132743 Cu
   0.7586103068935035    0.7586112195616128    0.8571320266818493 P
   0.2413890327098824    0.2413892653450603    0.1428690167952215 P
   0.7016476591875465    0.7016483729744851    0.4997624188215978 P
   0.2983516804158391    0.2983521119321872    0.5002386246554725 P
   0.6921986570981216    0.0114855217418430    0.7886526024060538 O
   0.0114855738010034    0.6921999037356523    0.7886522792978682 O
   0.3078006825052637    0.9885149631648293    0.2113484410710170 O
   0.9885137658023819    0.3078005811710199    0.2113487641792027 O
   0.6181906544115411    0.6181914563422459    0.8292976869172246 O
   0.3818086851918442    0.3818090285644264    0.1707033565598461 O
   0.8579061814383849    0.8579070071817633    0.5053990719740769 O
   0.1420931581650008    0.1420934777249096    0.4946019715029938 O
   0.2700445202728654    0.2700450061905415    0.6670937805011303 O
   0.7601730131794835    0.4448694097941432    0.5857725003606096 O
   0.5551303116516744    0.2398264883328658    0.4142286927790742 O
   0.2398263264239023    0.5551310751125286    0.4142285431164614 O
   0.7299548193305202    0.7299554787161310    0.3329072629759401 O
   0.3121481750644997    0.3121488192780960    0.9566287758971470 O
   0.1781939747189599    0.8218062229073301    0.0000002805198038 O
   0.8218052587340680    0.1781937109801024    0.0000005860171996 O
   0.4448690279517105    0.7601739965738071    0.5857723506979968 O
   0.6878511645388854    0.6878516656285762    0.0433722675799230 O
