Li1 La2 Cd1
1.0
   0.0000000000000000    3.8883612901686631    3.8883612901686631
   3.8883612901686631   -0.0000000000000000    3.8883612901686631
   3.8883612901686631    3.8883612901686631    0.0000000000000000
Li La Cd
1 2 1
direct
   0.7499997511479967    0.7499997511479966    0.7499997511479966 Li
   0.0000000000000000    0.0000000000000000    0.0000000000000000 La
   0.4999998340986644    0.4999998340986644    0.4999998340986644 La
   0.2499999170493322    0.2499999170493322    0.2499999170493322 Cd
