K8 Mo4 S12 O4
1.0
   7.0187678339181225   -0.0000000000000000    0.0000000000000004
   0.0000000000000014    9.0537898520547557    0.0000000000000005
  -0.0000000000000000   -0.0000000000000000   11.1907424569516571
K Mo S O
8 4 12 4
direct
   0.2500000771532100    0.4504727341167117    0.1907381045978360 K
   0.2500000771532099    0.9504727422870610    0.3092617856260850 K
   0.7500002314596301    0.5495272822239856    0.8092616758500056 K
   0.7500002314596302    0.0495272740536371    0.6907379948217572 K
   0.2500000771532100    0.1577738337022372    0.8735826048674159 K
   0.2500000771532100    0.6577738418725866    0.6264170658043470 K
   0.7500002314596300    0.8422261826384602    0.1264171755804261 K
   0.7500002314596301    0.3422261744681118    0.3735827146434949 K
   0.7500002314596302    0.2603530053105268    0.0445575746353189 Mo
   0.7500002314596301    0.7603530134808758    0.4554423155886016 Mo
   0.2500000771532100    0.2396470028598222    0.5445574648592399 Mo
   0.2500000771532099    0.7396470110301709    0.9554422058125228 Mo
   0.4971078147894083    0.1512703183842443    0.1222832320863154 S
   0.5028924938234318    0.8487296979564535    0.8777165483615262 S
  -0.0028923395170119    0.3487296897861044    0.6222831223102367 S
   0.0028923395170118    0.1512703183842443    0.1222832320863154 S
   0.4971078147894082    0.6512703265545933    0.3777166581376056 S
   0.0028923395170117    0.6512703265545933    0.3777166581376057 S
   0.2500000771532100    0.5047988425366795    0.9007134464332129 S
   0.5028924938234319    0.3487296897861044    0.6222831223102367 S
   0.7500002314596301    0.4952011738040187    0.0992863340146289 S
   0.7500002314596300    0.9952011819743671    0.4007135562092919 S
   0.2500000771532101    0.0047988343663305    0.5992862242385499 S
  -0.0028923395170120    0.8487296979564535    0.8777165483615262 S
   0.7500002314596301    0.7442526070814595    0.6112939513681354 O
   0.2500000771532100    0.2557474092592390    0.3887058290797073 O
   0.2500000771532099    0.7557474174295873    0.1112940611442140 O
   0.7500002314596302    0.2442525989111103    0.8887057193036274 O
