Al2 Sn1 Au2
1.0
  -2.0529607039448705    2.0529607039448705    5.9761340949592281
   2.0529607039448705   -2.0529607039448705    5.9761340949592281
   2.0529607039448705    2.0529607039448705   -5.9761340949592281
Al Sn Au
2 1 2
direct
   0.7499996572490482    0.2499998286953087    0.4999998285537396 Al
   0.2499998286953086    0.7499996572490483    0.4999998285537397 Al
   0.0000000000000000    0.0000000000000000    0.0000000000000000 Sn
   0.3804573453967405    0.3804573453967405    0.0000000000000000 Au
   0.6195419693844936    0.6195419693844936   -0.0000000000000000 Au
