Li6 V1 Cr1 P2 C2 O14
1.0
   6.4090194842406030   -0.0000000000000000    0.0000000000000004
   0.0000000000000008    4.8939630313454430    0.4557043048018198
   0.0000000000000000    0.0900233634917154    8.5875349602707693
Li V Cr P C O
6 1 1 2 2 14
direct
   0.5000000402369971    0.8060827253432267    0.1034920725403989 Li
   0.2653543668121089    0.2777655644729790    0.2720112969931474 Li
   0.7346457136618848    0.2777655644729790    0.2720112969931474 Li
   0.7711842790233988    0.7237422811473029    0.7284409867267958 Li
   0.2288158014505950    0.7237422811473029    0.7284409867267959 Li
  -0.0000000000000000    0.1983099636610273    0.8862370769677921 Li
   0.5000000402369972    0.2062883800994561    0.6724086164620616 V
  -0.0000000000000001    0.8013752639226226    0.3330148687079053 Cr
  -0.0000000000000000    0.2604431094030620    0.5937604775738897 P
   0.5000000402369971    0.7313673684118628    0.4103288312189955 P
  -0.0000000000000001    0.6781804608960429    0.0378094635993181 C
   0.5000000402369972    0.3321817235424455    0.9589822901521099 C
   0.5000000402369971    0.5148539787950616    0.8365685502226916 O
   0.8140900279236659    0.1416506537079018    0.6952066990477977 O
   0.1859100525503282    0.1416506537079018    0.6952066990477977 O
   0.5000000402369971    0.8320956989138275    0.5730177368216631 O
  -0.0000000000000001    0.5764397469711202    0.5840498621698722 O
   0.5000000402369972    0.4120195547841733    0.4292105085011551 O
  -0.0000000000000001    0.9354752807122100    0.0501419384963403 O
   0.6875274824069320    0.8422206085630025    0.3056601531294752 O
   0.3124725980670622    0.8422206085630025    0.3056601531294752 O
  -0.0000000000000001    0.5111925246875552    0.1689650300565003 O
   0.5000000402369972    0.4024807808717113    0.1002078025652460 O
  -0.0000000000000001    0.5814478725269028    0.9031871476751941 O
  -0.0000000000000000    0.1702917028372799    0.4266497694539599 O
   0.5000000402369972    0.0786959026706196    0.9293165479460478 O
