Mo1 W2 Se4 S2
1.0
   3.2815259831013219   -0.0014126863733207   -0.0014044477643072
  -1.6395826920258181    2.8392915930934937   -0.1336249182077852
   0.0135970804326526   -0.9881156940004504   19.5591438087290115
Mo W Se S
1 2 4 2
direct
   0.2204834362434945    0.4414926987440724    0.0096865030569895 Mo
   0.4453852678651442    0.8900903972212770    0.6805116938428241 W
   0.6674420182283658    0.3350291396943881    0.3507254777180617 W
   0.3632950306153951    0.7270494253660496    0.4379120716280130 Se
   0.5248251456437076    0.0498606801937553    0.9230764694666538 Se
   0.5828399334139581    0.1665313444228836    0.0964027906489114 Se
   0.3049078166118040    0.6096489678299606    0.2635102393166314 Se
   0.7521674170615938    0.5033520864872756    0.6011946524523385 S
   0.8052659640170253    0.6101394572318944    0.7598214246304392 S
