Ca4 C4 O12
1.0
   4.4851780540632928   -0.0000000000000000    0.0000000000000000
   0.0000000000000000    6.5673412788815657    0.0000000000000000
   0.0000000000000000    0.0000000000000000    8.5236208127785762
Ca C O
4 4 12
direct
   0.5000002169297053    0.4999999026332338    0.0000000000000000 Ca
   0.0000000000000000    0.0000000000000000    0.0000000000000000 Ca
   0.0000000000000000    0.0000000000000000    0.4999999523219888 Ca
   0.5000002169297053    0.4999999026332338    0.4999999523219888 Ca
   0.0224052372038130    0.6317447376704493    0.2499999761609944 C
   0.5224054541335182    0.8682549702292521    0.7499999284829832 C
   0.4775949797258924    0.1317448350372153    0.2499999761609944 C
   0.9775951966555975    0.3682550675960182    0.7499999284829832 C
   0.8980070506956830    0.6799253482291966    0.1173666314826544 O
   0.3980068337659780    0.8200743596705048    0.8826332731613230 O
   0.6019936000934328    0.1799254455959626    0.1173666314826544 O
   0.6019936000934328    0.1799254455959626    0.3826333208393342 O
   0.7737476712128176    0.9631414941725125    0.7499999284829832 O
   0.1019933831637272    0.3200744570372711    0.6173665838046436 O
   0.8980070506956830    0.6799253482291966    0.3826333208393342 O
   0.2737474542831128    0.5368582137271889    0.2499999761609944 O
   0.1019933831637272    0.3200744570372711    0.8826332731613230 O
   0.2262527626465924    0.0368583110939550    0.2499999761609944 O
   0.3980068337659780    0.8200743596705048    0.6173665838046436 O
   0.7262529795762982    0.4631415915392789    0.7499999284829832 O
