Tb2 O6
1.0
   3.2472447592182250   -5.6243928998490649    0.0000000000000000
   3.2472447939422211    5.6243928798011602   -0.0000000000000000
  -0.0000000000000000   -0.0000000000000000    3.4308804488219127
Tb O
2 6
direct
   0.3333323483696274    0.6666661788841237    0.7499999018862827 Tb
   0.6666661788841293    0.3333323519340845    0.2499999672954276 Tb
   0.9409838472423595    0.5775635607268752    0.7499999018862827 O
   0.0590146800113974    0.4224349700913329    0.2499999672954276 O
   0.6365788650019761    0.0590145810906785    0.7499999018862827 O
   0.3634196622517802    0.9409839497275297    0.2499999672954276 O
   0.4224348244085702    0.3634199139841710    0.7499999018862827 O
   0.5775637028451867    0.6365786168340370    0.2499999672954276 O
