Sr6 Mn4 N8
1.0
   7.0443823277717357   -0.0042135395456070   -0.4333587324107662
  -5.2307447705220804    6.8111266560199519    0.0000005796135356
  -0.0019161507777957   -0.0014715506354044    5.5239251124023321
Sr Mn N
6 4 8
direct
   0.2454226650987232    0.9892951728258502    0.0513421412441237 Sr
   0.7545790080421726    0.7438747673991206    0.4486580210880219 Sr
   0.7545780553186734    0.0107060660425646    0.9486584656781794 Sr
   0.2454217123752241    0.2561264714692941    0.5513425858342808 Sr
   0.0000003409742377    0.5985781094218585    0.7500006275463525 Sr
   0.0000003240815365    0.4014226097898589    0.2500002045053770 Sr
   0.5825335069525508    0.4177840581232098    0.0763328142621558 Mn
   0.4174676657754848    0.8352511885644190    0.4236673591916607 Mn
   0.5825330546419120    0.1647500503039959    0.5763332477306425 Mn
   0.4174672134648459    0.5822171807452055    0.9236677926601472 Mn
   0.3560259515955840    0.7295680908548909    0.1091480263926902 N
   0.2559646926106756    0.9418278249943021    0.5270496396984294 N
   0.7440364934181400    0.6858641586595046    0.9729513802922684 N
   0.7440360278067211    0.0581734138741132    0.4729509672238739 N
   0.2559642269992563    0.3141370802089104    0.0270492266300347 N
   0.6439747688218125    0.2704331480135240    0.8908525805296128 N
   0.3560256555411608    0.6264583219531982    0.6091484563883469 N
   0.6439750648762358    0.3735429169152167    0.3908521505339562 N
