Ba3 Nb6 Si4 O26
1.0
   9.1438012912317621    0.0000000000000000   -0.0000000000000000
  -4.5719006456158811    7.9187641711816648    0.0000000000000000
  -0.0000000000000000    0.0000000000000000    7.7915846299130491
Ba Nb Si O
3 6 4 26
direct
   0.6032331468827126    0.0000000000000000    0.4999997028901520 Ba
   0.3967666354201320    0.3967665589368675    0.4999997028901520 Ba
  -0.0000001162830621    0.6032329143165880    0.4999997028901520 Ba
   0.2390094003394650    0.0000000000000000    0.2428527091773692 Nb
   0.7609903117533077    0.7609901650599715    0.7571466966029348 Nb
  -0.0000000460729903    0.2390093081934844    0.7571466966029348 Nb
  -0.0000000460729903    0.2390093081934844    0.2428527091773692 Nb
   0.7609903117533077    0.7609901650599715    0.2428527091773692 Nb
   0.2390094003394650    0.0000000000000000    0.7571466966029348 Nb
   0.6666668416019775    0.3333328244179973    0.2080591354010490 Si
   0.6666668416019775    0.3333328244179973    0.7919402703792550 Si
   0.3333328244178045    0.6666666488354581    0.2080591354010490 Si
   0.3333328244178045    0.6666666488354581    0.7919402703792550 Si
   0.6950840402179737    0.5113660380046348    0.7114339916170300 O
   0.4886335882184402    0.1837178328098880    0.2885654141632745 O
   0.8214520352129029    0.0000000000000000    0.7751937540360418 O
   0.1785477891551535    0.1785477547371011    0.2248056517442625 O
  -0.0000001583482742    0.8214517185163549    0.2248056517442625 O
  -0.0000001583482742    0.8214517185163549    0.7751937540360418 O
  -0.0000000426282210    0.2211394143682164    0.4999997028901520 O
  -0.0000000560531135    0.2907822811128243    0.0000000000000000 O
   0.7788602090233447    0.7788600588852391    0.4999997028901520 O
   0.2211394996246585    0.0000000000000000    0.4999997028901520 O
   0.5113661011642174    0.6950838708145235    0.2885654141632745 O
   0.3049155626422255    0.8162816404435675    0.2885654141632745 O
   0.1837178094470124    0.4886334352488200    0.2885654141632745 O
   0.4886335882184402    0.1837178328098880    0.7114339916170300 O
   0.1837178094470124    0.4886334352488200    0.7114339916170300 O
   0.8214520352129029    0.0000000000000000    0.2248056517442625 O
   0.5113661011642174    0.6950838708145235    0.7114339916170300 O
   0.6950840402179737    0.5113660380046348    0.2885654141632745 O
   0.8162818963694766    0.3049156024389322    0.2885654141632745 O
   0.8162818963694766    0.3049156024389322    0.7114339916170300 O
   0.3333328244178045    0.6666666488354581    0.0000000000000000 O
   0.6666668416019775    0.3333328244179973    0.0000000000000000 O
   0.2907823932190512    0.0000000000000000    0.0000000000000000 O
   0.7092173288538446    0.7092171921406313    0.0000000000000000 O
   0.3049155626422255    0.8162816404435675    0.7114339916170300 O
   0.1785477891551535    0.1785477547371011    0.7751937540360418 O
