Nd4 Al4 Pd8
1.0
   5.9114245122831832   -0.0000000000000000    0.0000000000000000
   0.0000000000000000    7.0425710585442980    0.0000000000000000
   0.0000000000000000    0.0000000000000000    7.5093294145832310
Nd Al Pd
4 4 8
direct
   0.6541218469617766    0.7499998872701152    0.0317205027631473 Nd
   0.1541222286196300    0.2499999624233718    0.4682795362161501 Nd
   0.3458773897225163    0.2499999624233718    0.9682795751954474 Nd
   0.8458770080646624    0.7499998872701152    0.5317205417424448 Nd
   0.3452304643866826    0.7499998872701152    0.3823039995324716 Al
   0.8452300827288290    0.2499999624233718    0.1176960394468257 Al
   0.6547687722976099    0.2499999624233718    0.6176960784261232 Al
   0.1547691539554636    0.7499998872701152    0.8823040385117689 Al
   0.0863715591657901    0.9479090496402490    0.1789710828471971 Pd
   0.5863711775079364    0.0520908000532383    0.3210289561320929 Pd
   0.9136276775185025    0.4479091247935051    0.8210289951113904 Pd
   0.4136280591763561    0.5520907248999817    0.6789711218265018 Pd
   0.9136276775185025    0.0520908000532383    0.8210289951113904 Pd
   0.4136280591763561    0.9479090496402490    0.6789711218265018 Pd
   0.0863715591657901    0.5520907248999817    0.1789710828471971 Pd
   0.5863711775079364    0.4479091247935051    0.3210289561320929 Pd
