Sr2 Fe2 As2 F2
1.0
  -3.9861411611508930    0.0000000000000000    0.0150273273153878
  -0.0149579699913942    0.0000000000000000   -3.9865084439273848
   0.0000000000000000   -8.7579148217008882    0.0000000000000000
Sr Fe As F
2 2 2 2
direct
   0.7499999103658470    0.2499995944214618    0.1664018645896983 Sr
   0.2500003086517497    0.7500001263063972    0.8335975848567756 Sr
   0.7500001642631976    0.7499997905458943    0.5000095139428897 Fe
   0.2500000547543992    0.2499999301819648    0.4999899355035838 Fe
   0.7499999103658470    0.2499995944214618    0.6404568001108978 As
   0.2500003086517497    0.7500001263063972    0.3595426493355760 As
   0.7500001642631976    0.7499997905458943    0.0000239868142947 F
   0.2500000547543992    0.2499999301819648    0.9999754626321791 F
