Ti3 Se1
1.0
   3.2001371834300789    0.0000000003895233    0.0000000000000002
  -1.6000681899062148    2.7714003284300235    0.0000000000000002
   0.0000000000000000    0.0000000000000000    7.8952548651868479
Ti Se
3 1
direct
   0.6666670450855641    0.3333332937373395    0.2299945367897049 Ti
   0.6666670450855641    0.3333332937373395    0.7700048469937284 Ti
   0.0000000000000000    0.0000000000000000    0.4999996918917166 Ti
   0.3333332101010417    0.6666665876152231   -0.0000000000000000 Se
