Sr2 Li1 Cd1
1.0
   4.9709006847754189   -0.0000000000000000    2.8699508484699838
   1.6569668949251402    4.6866101104127349    2.8699508484699838
  -0.0000000000000000   -0.0000000000000000    5.7399016969399668
Sr Li Cd
2 1 1
direct
   0.2500001236866513    0.2499999941102027    0.2499997932819711 Sr
   0.7500003710599539    0.7499999823306081    0.7499993798459134 Sr
   0.0000000000000000    0.0000000000000000    0.0000000000000000 Li
   0.5000002473733026    0.4999999882204053    0.4999995865639421 Cd
