Rb3 Na1 H4
1.0
   5.7756891164404314   -0.0000000000000000   -0.0000000000000000
  -0.0000000000000000    5.7756891164404314    0.0000000000000000
  -0.0000000000000000   -0.0000000000000000    5.7756891164404314
Rb Na H
3 1 4
direct
   0.0000000000000000    0.0000000000000000    0.5000000764895366 Rb
   0.0000000000000000    0.5000000764895366    0.0000000000000000 Rb
   0.5000000764895366    0.0000000000000000    0.0000000000000000 Rb
   0.5000000764895366    0.5000000764895366    0.5000000764895366 Na
   0.5000000764895366    0.5000000764895366    0.0000000000000000 H
   0.5000000764895366    0.0000000000000000    0.5000000764895366 H
   0.0000000000000000    0.5000000764895366    0.5000000764895366 H
   0.0000000000000000    0.0000000000000000    0.0000000000000000 H
