Hg4 Te2 O6
1.0
   3.5965495734883892    0.0000000000000000    0.0000000000000000
   0.0000000000000000    5.8964062096851126    0.0000000000000000
   0.0000000000000000    0.0000000000000000   11.5405107381925891
Hg Te O
4 2 6
direct
   0.0488150881166409    0.8142084790167872    0.9401701287737194 Hg
   0.0488150881166409    0.1857921638010161    0.0598298072609497 Hg
   0.0488150881166409    0.1857921638010161    0.4401701607563848 Hg
   0.0488150881166409    0.8142084790167872    0.5598297752782840 Hg
   0.4630090689677652    0.5571612047427370    0.2499999840086672 Te
   0.4630090689677652    0.4428394380750665    0.7499999520260018 Te
   0.0941325906846679    0.5344086850432674    0.3739026645946434 O
   0.0941325906846679    0.4655919577745359    0.6260972714400259 O
   0.0941325906846679    0.4655919577745359    0.8739026326119775 O
   0.0941325906846679    0.5344086850432674    0.1260973034226913 O
   0.5579947284136069    0.2436259810344197    0.2499999840086672 O
   0.5579947284136069    0.7563746617833838    0.7499999520260018 O
