Yb1 P3 O10
1.0
   6.4590313103189798    0.1549251147165137    2.2163588851916436
   3.0098699622121901    5.7169721067557857    2.2163588851916458
   0.3094429083993688    0.1918931142840872    5.6261482646655745
Yb P O
1 3 10
direct
   0.0701618428703146    0.9298375887555465    0.5000005762728755 Yb
   0.7044386472838354    0.2955614703401525    0.0000001518110334 P
   0.5083325797330300    0.8307283542251114    0.8375886945371659 P
   0.1692712452461048    0.4916669354129852    0.1624123589859245 P
   0.6718206423819373    0.5516801540752875    0.9658186679845888 O
   0.4483194517298959    0.3281790734698737    0.0341823039774758 O
   0.7986605325842215    0.1335939343065786    0.2415641230510238 O
   0.8664059105809954    0.2013391991279711    0.7584367484791567 O
   0.4044439573555226    0.8395777182455506    0.6368817425386690 O
   0.1604218791454428    0.5955555071264561    0.3631193317624370 O
   0.6804596388495708    0.9366524934535879    0.7132740305572638 O
   0.0633472926351390    0.3195397206519324    0.2867270107643558 O
   0.3247060735080933    0.9311941316602660    0.0731935381079896 O
   0.0688056230307785    0.6752931535061220    0.9268075677743012 O
