Pr1 Rh3 C1
1.0
   4.2437515742083658    0.0000000000000000    0.0000000000000000
   0.0000000000000000    4.2437515742083658    0.0000000000000000
  -0.0000000000000000   -0.0000000000000000    4.2437515742083658
Pr Rh C
1 3 1
direct
   0.0000000000000000    0.0000000000000000    0.0000000000000000 Pr
   0.0000000000000000    0.4999998145263291    0.4999998145263291 Rh
   0.4999998145263291    0.4999998145263291    0.0000000000000000 Rh
   0.4999998145263291    0.0000000000000000    0.4999998145263291 Rh
   0.4999998145263291    0.4999998145263291    0.4999998145263291 C
