Hf2 N2 Cl2
1.0
   3.5124422948949614   -0.0016646541016029    8.7868804425950291
   1.6898121964534873    3.0792526219555416    8.7868804355757142
  -0.0028136077416598   -0.0016646511019127    9.4629019332640443
Hf N Cl
2 2 2
direct
   0.1195049624290419    0.1195053765235463    0.1195049849147791 Hf
   0.8804937415732507    0.8804967925892997    0.8804939072439710 Hf
   0.1976231863489172    0.1976238711364896    0.1976232235330342 N
   0.8023755176533754    0.8023782979763563    0.8023756686257162 N
   0.3876069265954620    0.3876082696910206    0.3876069995264418 Cl
   0.6123917774068304    0.6123938994218250    0.6123918926323082 Cl
