Na1 Ca1 Be2
1.0
  -2.3408829539325193    2.3408829539325193    3.3107740139583051
   2.3408829539325193   -2.3408829539325193    3.3107740139583051
   2.3408829539325193    2.3408829539325193   -3.3107740139583051
Na Ca Be
1 1 2
direct
   0.7499990659577327    0.2499996969018206    0.4999993690559122 Na
   0.4999993938036411    0.4999993938036411    0.0000000000000000 Ca
   0.0000000000000000    0.0000000000000000    0.0000000000000000 Be
   0.2499996969018205    0.7499990659577328    0.4999993690559123 Be
