Ho3 In3 Cu3
1.0
   7.4660552165904148    0.0000000030687311    0.0000000000000000
  -3.7330271029441020    6.4657936692418536   -0.0000000000000000
  -0.0000000000000000    0.0000000000000000    3.8780603078446014
Ho In Cu
3 3 3
direct
  -0.0000003970869153    0.5911024911628545    0.4999999603094618 Ho
   0.4088971605875010    0.4088969411580256    0.4999999603094618 Ho
   0.5911032051769201   -0.0000000002806346    0.4999999603094618 Ho
   0.7425421902291819    0.7425417917532836    0.0000000000000000 In
  -0.0000001729535123    0.2574576404095895    0.0000000000000000 In
   0.2574579514018366   -0.0000000001226278    0.0000000000000000 In
   0.3333327656344454    0.6666666215181750    0.0000000000000000 Cu
   0.0000000000000000    0.0000000000000000    0.4999999603094618 Cu
   0.6666672030430607    0.3333328105220706    0.0000000000000000 Cu
