Ba1 Si3 Pt1
1.0
   4.4797239903010313    0.0000000000000000   -0.0000000000000000
   0.0000000000000000    4.4797239903010313    0.0000000000000000
  -2.2398619951505157   -2.2398619951505157    5.0636743476748753
Ba Si Pt
1 3 1
direct
   0.6017013114384373    0.6017013114384373    0.2034035136239542 Ba
   0.9945040374145480    0.9945040374145480    0.9890089655761622 Si
   0.8563712999890725    0.3563717453626087    0.7127424907261035 Si
   0.3563717453626087    0.8563712999890725    0.7127424907261035 Si
   0.2498489312877775    0.2498489312877775    0.4996988625746689 Pt
