Ga1 Fe3
1.0
   3.5152422557493281    0.0004642218484492    2.0292657436524535
   1.1719555588141513    3.3145154957679392    2.0296640437050559
  -0.0002240323033162    0.0003280959416414    4.0589206962319739
Ga Fe
1 3
direct
   0.0000069204581641    0.0000032698440572   -0.0000099128655247 Ga
   0.5000010001743189    0.5000058981122311    0.4999940605728013 Fe
   0.7500016835895157    0.7500064961753422    0.7500096901879529 Fe
   0.2499927190131313    0.2499863252102852    0.2500033271635871 Fe
