Al8 Si4 O20
1.0
   5.2909636426808158    0.0606366345565461    0.6450964241387195
  -1.2755234714937425    7.9814730052592360   -2.6598403637479451
   0.8977970799678854   -0.2539500856810717    8.4710359265888826
Al Si O
8 4 20
direct
   0.7836777199560038    0.8300059814306274    0.3130563988118961 Al
   0.2623308060461938    0.9935317204376217    0.9442246789223202 Al
   0.6720506689937291    0.1900268653573653    0.8083382443251523 Al
   0.3279497105202186    0.8099732176285632    0.1916626987621686 Al
   0.8759728806890387    0.8179307798993031    0.6707644070591741 Al
   0.7376695734677537    0.0064683625483067    0.0557762641650006 Al
   0.1240274988249102    0.1820693030866249    0.3292365360281470 Al
   0.2163226595579443    0.1699941015553005    0.6869445442754250 Al
   0.5769062520128109    0.3921199549769198    0.5743952007291834 Si
   0.0115036677650147    0.4551564298385319    0.6740757458950872 Si
   0.4230941275011362    0.6078801280090084    0.4256057423581373 Si
   0.9884967117489326    0.5448436531473964    0.3259251971922335 Si
   0.8784842713152006    0.2959970975791247    0.5097520207281612 O
   0.7881426032832595    0.5742989873636313    0.6868333650304351 O
   0.9097840274635335    0.0411671545263821    0.6782965116533689 O
   0.2118577762306882    0.4257010956222967    0.3131675780568853 O
   0.9502684797592027    0.8720520687423456    0.8789434467408451 O
   0.6494480261277819    0.7700210341775859    0.5154160944626524 O
   0.6807596681774719    0.4634152149742967    0.3801400266782241 O
   0.0902163520504140    0.9588329284595457    0.3217044314339519 O
   0.3192407113364756    0.5365848680116323    0.6198609164090967 O
   0.4115594291311229    0.8467811983682765    0.9912530537636256 O
   0.1215161081987466    0.7040029854068042    0.4902489223591597 O
   0.4990591231341089    0.3311976565258456    0.7525341600866757 O
   0.5009412563798388    0.6688024264600834    0.2474667830006451 O
   0.0497318997547455    0.1279480142435825    0.1210574963464753 O
   0.3757444111681789    0.0406751985773708    0.7489489411931439 O
   0.3505523533861652    0.2299790488083424    0.4845848486246678 O
   0.5884409503828256    0.1532188846176517    0.0087478893236951 O
   0.0085318340814520    0.6467292499196619    0.1937283015931124 O
  -0.0085307694480502    0.3532703866534219    0.8062720270219831 O
   0.6242559683457688    0.9593248844085577    0.2510520018941764 O
