Li6 Ti2 P4 O16
1.0
   0.0000000000000000    4.9363973032551209    0.0092713168505126
   8.9023239636773948    0.0000000000000000    0.0000000000000000
   0.0000000000000000   -4.4231469702991673   -6.3232998746903508
Li Ti P O
6 2 4 16
direct
   0.3196389093474348    0.1371468332051774    0.3106265288832575 Li
   0.0000000000000000    0.4999997773796252    0.0000000000000000 Li
   0.6803615261285245    0.6371466105848028    0.1893736899174952 Li
  -0.0000002983873492    0.0000000000000000    0.5000000094710645 Li
   0.3196386109600857    0.3628529441744477    0.8106265383543222 Li
   0.6803612277411752    0.8628527215540728    0.6893736993885595 Li
   0.5000000685443049    0.4999997773796252    0.5000001141359086 Ti
   0.5000003669316541    0.0000000000000000    0.0000001046648442 Ti
   0.1899049596932926    0.8179585428805137    0.2168278587366857 P
   0.8100954757826669    0.3179587655008879    0.2831723600640673 P
   0.1899046613059434    0.6820407892583619    0.7168278682077505 P
   0.8100951773953176    0.1820410118787369    0.7831723695351313 P
   0.4764390939196428    0.6464507827585363    0.6912723170201365 O
   0.8535191786414384    0.8672036951349222    0.0120147830759636 O
   0.5235607447816177    0.1464510053789111    0.8087279207227452 O
   0.1464812568345203    0.3672039177552970    0.4879854357247891 O
   0.7455645413735885    0.4017339895484492    0.0912663076602173 O
   0.8328612362837740    0.1448329465223880    0.2567960183450214 O
   0.1671389008048351    0.8551666082368622    0.7432042099267963 O
   0.7455642429862392    0.0982657878311762    0.5912663171312819 O
   0.8535188802540893    0.6327956370039532    0.5120147925470278 O
   0.4764393923069921    0.8535485493803392    0.1912723075490718 O
   0.1464809584471712    0.1327958596243280    0.9879854451958540 O
   0.5235610431689670    0.3535487720007143    0.3087279112516811 O
   0.2544358941023707    0.9017337669280741    0.4087339111405356 O
   0.8328609378964248    0.3551668308572371    0.7567960278160853 O
   0.2544355957150216    0.5982655652108013    0.9087339206115999 O
   0.1671391991921843    0.6448327239020133    0.2432042004557317 O
