K6 Pd4 O8
1.0
   5.5108774069575412   -0.0047649648075174    0.0000000000000000
  -2.0803082948167964    5.1031471556102037   -0.0000000000000000
   0.0000000000000000   -0.0000000000000000   11.4112024159590444
K Pd O
6 4 8
direct
   0.3530767265561126    0.6469242095774470    0.5684243973364566 K
   0.6469240124786407    0.3530773213834578    0.0684245031955483 K
   0.2836241348824276    0.7163767072456133    0.2499999470704542 K
   0.6469240124786407    0.3530773213834578    0.4315753909453601 K
   0.7163766041523255    0.2836248237152919    0.7499998412113624 K
   0.3530767265561126    0.6469242095774470    0.9315752850862684 K
   0.0000000000000000    0.0000000000000000    0.4999998941409083 Pd
   0.9223039985868278    0.0776977080076892    0.2499999470704542 Pd
   0.0776967404479255    0.9223038229532158    0.7499998412113624 Pd
   0.0000000000000000    0.0000000000000000    0.0000000000000000 Pd
   0.1302955537104560    0.2968527843315846    0.1151911029997021 O
   0.1302955537104560    0.2968527843315846    0.3848087911412063 O
   0.7031480111192921    0.8697056953960988    0.3848087911412063 O
   0.2968527279154605    0.1302958355648064    0.6151909971406104 O
   0.7031480111192921    0.8697056953960988    0.1151911029997021 O
   0.8697051853242970    0.7031487466293204    0.6151909971406104 O
   0.2968527279154605    0.1302958355648064    0.8848086852821144 O
   0.8697051853242970    0.7031487466293204    0.8848086852821144 O
