Sn6 As2
1.0
   6.6075139696208316   -0.0000000047373914    0.0000000000000004
  -3.3037572695549460    5.7222747891548593    0.0000000000000004
   0.0000000000000000    0.0000000000000000    5.5077352660278960
Sn As
6 2
direct
   0.1701395002045271    0.3402784860681638    0.2500002148783427 Sn
   0.6597201430182665    0.8298594206503780    0.2500002148783426 Sn
   0.1701390930188935    0.8298594202461979    0.2500002148783426 Sn
   0.8298590677363105    0.6597206778277253    0.7500006446350281 Sn
   0.3402784249225713    0.1701397432455109    0.7500006446350281 Sn
   0.8298594749219441    0.1701397436496911    0.7500006446350281 Sn
   0.3333325787471574    0.6666661089879617    0.7500006446350281 As
   0.6666659891936801    0.3333330549079272    0.2500002148783426 As
