Dy2 In1 Ag1
1.0
   3.5980935425280212    0.0000000000000000    0.0000000000000000
   0.0000000000000000    3.5980935425280212   -0.0000000000000000
   0.0000000000000000   -0.0000000000000000    7.6679368603436426
Dy In Ag
2 1 1
direct
   0.0000000000000000    0.0000000000000000    0.7637651328482782 Dy
   0.0000000000000000    0.0000000000000000    0.2362352766042791 Dy
   0.4999995077215226    0.4999995077215226    0.5000002047262787 In
   0.4999995077215226    0.4999995077215226    0.0000000000000000 Ag
