Li1 Ga1 O2
1.0
   2.8064146946695172   -0.0075582749077785    4.2784215084190462
   1.2723753226829877    2.5014160439709499    4.2784215071953717
  -0.0123622940606676   -0.0075582759581834    5.1167078609413954
Li Ga O
1 1 2
direct
   0.0000000000000000    0.0000000000000000    0.0000000000000000 Li
   0.5000003577741005    0.5000001009847609    0.4999995307448163 Ga
   0.2423199824529737    0.2423198580027399    0.2423195816417442 O
   0.7576807330952278    0.7576803439667817    0.7576794798478885 O
