Li2 Mn2 Sb2 O8
1.0
   6.1203073278491225   -0.0000000036721330   -0.0000000025965905
   3.0601541478807035    5.4780189254398097    0.0411449066563932
   3.0601541478807039    1.8647970017275461    5.1510107324339423
Li Mn Sb O
2 2 2 8
direct
   0.1476812283866778    0.1023188111259370    0.1023185836833875 Li
   0.8523178445158397    0.8976823085740062    0.8976803131226977 Li
  -0.0000006816007098    0.5000005595999222    0.4999994481529930 Mn
   0.4999995364512585    0.5000005598499716    0.4999994484030425 Mn
   0.4999997665916549    0.0000002989282900    0.4999999267681485 Sb
   0.4999999879115719    0.5000002611717311   -0.0000004781150566 Sb
   0.2759732038749395    0.2487774780808814    0.2487769250738970 O
   0.2772619302272009    0.2425100824810656    0.7029650176385543 O
   0.2772621340441219    0.7029658646676665    0.2425088278181769 O
   0.7264711560092003    0.2487774783066357    0.2487769252996513 O
   0.2735279168946799    0.7512226413921840    0.7512209715075330 O
   0.7227371426753157    0.7574910372188774    0.2970338791675303 O
   0.7227369388583952    0.2970352550322771    0.7574900689879076 O
   0.7240258690289400    0.7512226416179378    0.7512209717332872 O
