Ba4 Mg1 Bi1
1.0
   0.0000000000000000    5.1112670770836957    5.1112670770836957
   5.1112670770836957   -0.0000000000000000    5.1112670770836957
   5.1112670770836957    5.1112670770836957    0.0000000000000000
Ba Mg Bi
4 1 1
direct
   0.1292838901786758    0.6235724178454297    0.6235724178454297 Ba
   0.6235724178454297    0.6235724178454297    0.6235724178454297 Ba
   0.6235724178454297    0.1292838901786757    0.6235724178454297 Ba
   0.6235724178454297    0.6235724178454297    0.1292838901786757 Ba
   0.0000000000000000    0.0000000000000000    0.0000000000000000 Mg
   0.2500001429643697    0.2500001429643697    0.2500001429643697 Bi
