Yb2 Y4 S8
1.0
   6.7932503912989297    0.0000000027121498   -2.4111908734879060
  -3.3921884956897097    5.8908147825117032   -2.3986397903831036
  -0.0088753887123782    0.0000000044600910    7.2084684664586387
Yb Y S
2 4 8
direct
   0.1249989278565464    0.7499993903856251    0.8749996180095936 Yb
   0.3749993969856105    0.2499997963893653    0.6249999016775513 Yb
   0.2499993343782135    0.6282941499254827    0.3782943604031679 Y
   0.6217049006670686    0.3717050373383872    0.2499998703219699 Y
   0.7499993270632526    0.8717046314468728    0.1217049702818925 Y
   0.8782940198309458    0.1282945552843225    0.7500000129997171 Y
   0.5040721616377881    0.9994621643506179    0.8601829245826722 S
   0.1398164122384860    0.1438908903373806    0.1392795207707430 S
   0.3601830578381375    0.4994625709945481    0.0040731844189162 S
   0.6392787063587071    0.6438904837988876    0.6398163330001718 S
   0.5046101510182185    0.0005370224016685    0.3607204639002514 S
   0.9959256667244177    0.8561082967999609    0.4953892326874079 S
   0.8607200512623051    0.5005366165777154    0.0046102581229292 S
   0.9953889568009018    0.3561087027293515    0.4959265105304028 S
