Al1 O2 F1
1.0
   3.6496818301174945   -0.0051645866833753    0.0228665066064399
  -0.0464479076731684    3.6159323660494929    0.6890748562739120
  -0.0306976452979849   -0.7330105617935011    3.6343705436164617
Al O F
1 2 1
direct
   0.0683955488379760    0.0103344077268439   -0.0441179981030365 Al
   0.0685095904584654    0.5103367200975729   -0.0441307035198305 O
   0.5683937453620932    0.0103888979173527    0.9559368714907175 O
   0.0682815842646044    0.0103291642242528    0.4558912173692609 F
