Ba2 Sb2 Au2
1.0
   4.8323106849932840    0.0000000016104389    0.0000000000000000
  -2.4161558397357266    4.1849035522168450    0.0000000000000000
  -0.0000000000000000    0.0000000000000000    9.3402913337241102
Ba Sb Au
2 2 2
direct
   0.0000000000000000    0.0000000000000000    0.0000000000000000 Ba
   0.0000000000000000    0.0000000000000000    0.4999999286037200 Ba
   0.6666664769252687    0.3333327168047734    0.2499999643018600 Sb
   0.3333320957945551    0.6666664339935097    0.7499998929055800 Sb
   0.3333320957945551    0.6666664339935097    0.2499999643018600 Au
   0.6666664769252687    0.3333327168047734    0.7499998929055800 Au
