Na1 Mo1 F6
1.0
   5.0963213213303140   -0.0000000000000000    2.9423624867468874
   1.6987737737767714    4.8048578205576682    2.9423624867468874
  -0.0000000000000000   -0.0000000000000000    5.8847249734937730
Na Mo F
1 1 6
direct
   0.4999994245205570    0.5000002267957152    0.4999993291887265 Na
   0.0000000000000000    0.0000000000000000    0.0000000000000000 Mo
   0.2283419050369370    0.7716576977002979    0.2283422353871666 F
   0.2283419050369370    0.7716576977002979    0.7716564715693233 F
   0.7716569440041767    0.2283427558911322    0.2283421868081296 F
   0.7716564595372567    0.7716576977002979    0.2283420762280850 F
   0.2283423895038572    0.2283427558911322    0.7716565821493677 F
   0.7716569440041767    0.2283427558911322    0.7716564229902863 F
