Y12 Sc8 Al12 O48
1.0
  -6.2001808959832090    6.2001808959832090    6.2001808959832090
   6.2001808959832090   -6.2001808959832090    6.2001808959832090
   6.2001808959832090    6.2001808959832090   -6.2001808959832090
Y Sc Al O
12 8 12 48
direct
   0.8749998735544460    0.6249999096817472    0.2499999638726989 Y
   0.2499999638726989    0.3749999458090483    0.1249999819363494 Y
   0.1249999819363494    0.2499999638726989    0.3749999458090483 Y
   0.3749999458090483    0.7499998916180967    0.1249999819363494 Y
   0.3749999458090483    0.1249999819363494    0.2499999638726989 Y
   0.7499998916180965    0.1249999819363494    0.3749999458090483 Y
   0.7499998916180965    0.6249999096817471    0.8749998735544460 Y
   0.2499999638726989    0.8749998735544460    0.6249999096817471 Y
   0.8749998735544460    0.7499998916180967    0.6249999096817471 Y
   0.6249999096817471    0.2499999638726988    0.8749998735544461 Y
   0.1249999819363494    0.3749999458090483    0.7499998916180967 Y
   0.6249999096817471    0.8749998735544461    0.7499998916180967 Y
   0.0000000000000000    0.0000000000000000    0.0000000000000000 Sc
   0.0000000000000000    0.0000000000000000    0.4999999277453978 Sc
   0.4999999277453977   -0.0000000000000000   -0.0000000000000000 Sc
   0.4999999277453978    0.4999999277453978    0.4999999277453978 Sc
   0.0000000000000000    0.4999999277453978    0.0000000000000000 Sc
   0.0000000000000000    0.4999999277453978    0.4999999277453978 Sc
   0.4999999277453978    0.0000000000000000    0.4999999277453978 Sc
   0.4999999277453978    0.4999999277453978    0.0000000000000000 Sc
   0.2499999638726988    0.6249999096817471    0.3749999458090483 Al
   0.1249999819363495    0.8749998735544461    0.2499999638726989 Al
   0.7499998916180965    0.8749998735544461    0.1249999819363494 Al
   0.3749999458090483    0.2499999638726989    0.6249999096817471 Al
   0.1249999819363494    0.7499998916180965    0.8749998735544460 Al
   0.6249999096817471    0.3749999458090483    0.2499999638726989 Al
   0.8749998735544459    0.1249999819363495    0.7499998916180965 Al
   0.2499999638726989    0.1249999819363494    0.8749998735544460 Al
   0.7499998916180967    0.3749999458090483    0.6249999096817471 Al
   0.3749999458090483    0.6249999096817472    0.7499998916180967 Al
   0.6249999096817471    0.7499998916180967    0.3749999458090483 Al
   0.8749998735544460    0.2499999638726989    0.1249999819363494 Al
   0.2860789763655341    0.4740166010171004    0.3745673268563941 O
   0.1254326008890036    0.5994502019059640    0.9115135049996486 O
   0.1879376246515732    0.2139209513798636    0.5884862782365446 O
   0.0994502741605663    0.6254325286344014    0.4115135772542509 O
   0.3120623030938243    0.9005495813302292    0.0259833267282975 O
   0.9005495813302292    0.0259833267282975    0.3120623030938243 O
   0.3745673268563942    0.2860789763655341    0.4740166010171004 O
   0.5994502019059640    0.9115135049996484    0.1254326008890036 O
   0.5259832544736953    0.4005496535848315    0.8120622308392222 O
   0.8120622308392224    0.5259832544736952    0.4005496535848315 O
   0.6254325286344012    0.4115135772542508    0.0994502741605662 O
   0.6879375523969710    0.0884863504911470    0.7139208791252614 O
   0.9740165287624979    0.7860789041109318    0.8745672546017920 O
   0.0259833267282975    0.3120623030938243    0.9005495813302292 O
   0.4115135772542509    0.0994502741605662    0.6254325286344012 O
   0.0884863504911470    0.7139208791252614    0.6879375523969710 O
   0.2139209513798636    0.5884862782365446    0.1879376246515732 O
   0.7139208791252614    0.6879375523969710    0.0884863504911470 O
   0.4740166010171004    0.3745673268563941    0.2860789763655341 O
   0.9115135049996484    0.1254326008890035    0.5994502019059639 O
   0.4005496535848315    0.8120622308392222    0.5259832544736953 O
   0.7860789041109317    0.8745672546017919    0.9740165287624979 O
   0.0884863504911470    0.8745672546017919    0.4005496535848315 O
   0.4115135772542509    0.8120622308392221    0.7860789041109317 O
   0.5259832544736953    0.6254325286344014    0.7139208791252614 O
   0.9740165287624979    0.6879375523969709    0.0994502741605662 O
   0.6879375523969709    0.0994502741605662    0.9740165287624979 O
   0.6254325286344012    0.7139208791252614    0.5259832544736952 O
   0.8120622308392224    0.7860789041109318    0.4115135772542508 O
   0.8745672546017920    0.4005496535848316    0.0884863504911470 O
   0.7139208791252614    0.5259832544736953    0.6254325286344012 O
   0.0994502741605662    0.9740165287624980    0.6879375523969710 O
   0.5884862782365446    0.1879376246515732    0.2139209513798636 O
   0.4005496535848315    0.0884863504911470    0.8745672546017919 O
   0.9115135049996484    0.2860789763655341    0.3120623030938244 O
   0.5884862782365445    0.9005495813302292    0.3745673268563942 O
   0.4740166010171004    0.5994502019059639    0.1879376246515732 O
   0.8745672546017920    0.9740165287624979    0.7860789041109317 O
   0.3120623030938244    0.9115135049996486    0.2860789763655341 O
   0.3745673268563940    0.5884862782365446    0.9005495813302292 O
   0.1879376246515732    0.4740166010171004    0.5994502019059639 O
   0.1254326008890036    0.0259833267282975    0.2139209513798636 O
   0.2860789763655341    0.3120623030938243    0.9115135049996484 O
   0.9005495813302293    0.3745673268563941    0.5884862782365446 O
   0.5994502019059639    0.1879376246515732    0.4740166010171004 O
   0.2139209513798636    0.1254326008890036    0.0259833267282975 O
   0.7860789041109317    0.4115135772542508    0.8120622308392222 O
   0.0259833267282975    0.2139209513798636    0.1254326008890036 O
