Tb2 Ba6 Ru2 Ir2 O18
1.0
   5.9349549266814057   -0.0000000000000000   -0.0000000000000000
  -2.9674774633407028    5.1398219102477203    0.0000000000000000
  -0.0000000000000000    0.0000000000000000   14.6425651803791741
Tb Ba Ru Ir O
2 6 2 2 18
direct
   0.0000000000000000    0.0000000000000000    0.4997373310419943 Tb
   0.0000000000000000    0.0000000000000000    0.9997374956176935 Tb
   0.3333323144703538    0.6666667522289380    0.5929778080091090 Ba
   0.6666662421787181    0.3333328761146596    0.4047309359853573 Ba
   0.6666662421787181    0.3333328761146596    0.0929776434334095 Ba
   0.3333323144703538    0.6666667522289380    0.9047311005610571 Ba
   0.0000000000000000    0.0000000000000000    0.2501720142143848 Ba
   0.0000000000000000    0.0000000000000000    0.7501721787900851 Ba
   0.3333323144703538    0.6666667522289380    0.1635817959451455 Ru
   0.6666662421787181    0.3333328761146596    0.6635819605208451 Ru
   0.6666662421787181    0.3333328761146596    0.8351226877872278 Ir
   0.3333323144703538    0.6666667522289380    0.3351225232115283 Ir
   0.1763130375533364    0.8236860048424717    0.4134153559608879 O
   0.3541704349030554    0.1770853529350511    0.5889830801520936 O
   0.8229135020910444    0.6458289224735022    0.5889830801520936 O
   0.8229137895422730    0.1770853529350511    0.5889830801520936 O
   0.3526259772168211    0.1763136235011261    0.9134155205365877 O
   0.8236852302240438    0.6473733813409707    0.9134155205365877 O
   0.8236855190957352    0.1763136235011261    0.9134155205365877 O
   0.6458281217460159    0.8229142754085463    0.0889829155763938 O
   0.0181952585258607    0.5090976037046999    0.2488547527294306 O
   0.1770847671067985    0.8229142754085463    0.0889829155763938 O
   0.9818032981232113    0.4909020246388979    0.7488549173051308 O
   0.5090973591473861    0.0181955790658089    0.7488549173051308 O
   0.5090970692657768    0.4909020246388979    0.7488549173051308 O
   0.1763133264250281    0.3526262470026261    0.4134153559608879 O
   0.4909011975016859    0.9818040492777889    0.2488547527294306 O
   0.4909014873832957    0.5090976037046999    0.2488547527294306 O
   0.1770850545580273    0.3541707058700951    0.0889829155763938 O
   0.6473725794322506    0.8236860048424717    0.4134153559608879 O
