Sm2 Tl2 Mo4 O16
1.0
   6.2651611183381162   -0.0000000000000000    0.0000000000000000
   0.0000000000000000    6.2651611183381162   -0.0000000000000000
   0.0000000000000000   -0.0000000000000000    9.5416234647366096
Sm Tl Mo O
2 2 4 16
direct
   0.4999999107494528    0.4999999107494528    0.4999998184409276 Sm
   0.0000000000000000    0.0000000000000000    0.0000000000000000 Sm
   0.4999999107494528    0.4999999107494528    0.0000000000000000 Tl
   0.0000000000000000    0.0000000000000000    0.4999998184409276 Tl
   0.4999999107494528    0.0000000000000000    0.7499997276613914 Mo
   0.0000000000000000    0.4999999107494528    0.7499997276613914 Mo
   0.4999999107494528    0.0000000000000000    0.2499999092204638 Mo
   0.0000000000000000    0.4999999107494528    0.2499999092204638 Mo
   0.1157446217411267    0.6959804542815727    0.1380530413390716 O
   0.1157446217411267    0.3040193672173324    0.8619465955427836 O
   0.8842551997577860    0.6959804542815727    0.8619465955427836 O
   0.3040193672173324    0.1157446217411267    0.1380530413390716 O
   0.6959804542815727    0.8842551997577860    0.1380530413390716 O
   0.8842551997577860    0.3040193672173324    0.1380530413390716 O
   0.6157445324905724    0.1959805435321204    0.3619467771018560 O
   0.3842552890083262    0.1959805435321204    0.6380528597799993 O
   0.1959805435321204    0.3842552890083262    0.3619467771018560 O
   0.6157445324905724    0.8040192779667855    0.6380528597799993 O
   0.3040193672173324    0.8842551997577860    0.8619465955427836 O
   0.3842552890083262    0.8040192779667855    0.3619467771018560 O
   0.1959805435321204    0.6157445324905724    0.6380528597799993 O
   0.8040192779667855    0.3842552890083262    0.6380528597799993 O
   0.8040192779667855    0.6157445324905724    0.3619467771018560 O
   0.6959804542815727    0.1157446217411267    0.8619465955427836 O
