Tm4 Zr4 O14
1.0
  -5.2210528938819447    5.2210528938819447   -0.0000000000000000
   5.2210528938819447    0.0000000000000000    5.2210528938819447
   5.2210528938819447    5.2210528938819447   -0.0000000000000000
Tm Zr O
4 4 14
direct
   0.6249996535801777    0.7499995842962133    0.1249999307160355 Tm
   0.1249999307160356    0.2499998614320711    0.1249999307160355 Tm
   0.1249999307160356    0.7499995842962133    0.1249999307160355 Tm
   0.1249999307160356    0.2499998614320711    0.6249996535801777 Tm
   0.6249996535801777    0.2499998614320711    0.1249999307160355 Zr
   0.6249996535801777    0.2499998614320711    0.6249996535801777 Zr
   0.6249996535801776    0.7499995842962133    0.6249996535801777 Zr
   0.1249999307160356    0.7499995842962133    0.6249996535801777 Zr
   0.9683786849043839    0.9367579240804834    0.5316204836880427 O
   0.5316204836880427    0.0632415216478014    0.9683786849043839 O
   0.9683786849043841    0.4999997228641422    0.9683786849043841 O
   0.2499998614320711    0.4999997228641422    0.2499998614320711 O
   0.5316204836880427    0.4999997228641422    0.5316204836880427 O
   0.2816206222559716    0.0000000000000000    0.7183788234723127 O
   0.2816206222559717    0.0000000000000000    0.2816206222559717 O
   0.7183788234723127    0.0000000000000000    0.7183788234723129 O
   0.0000000000000000    0.0000000000000000    0.0000000000000000 O
   0.5316204836880427    0.4999997228641422    0.9683786849043838 O
   0.7183788234723127    0.4367582012163407    0.2816206222559717 O
   0.7183788234723127    0.0000000000000000    0.2816206222559716 O
   0.9683786849043839    0.4999997228641422    0.5316204836880427 O
   0.2816206222559717    0.5632412445119434    0.7183788234723127 O
