Na1 V1 O2
1.0
   2.9589693690691350    0.0000000000000000    0.0000000000000000
  -1.4794846845345675    2.5629750455767648    0.0008064446042022
   0.0000000000000000   -0.0008097170091275    5.6053631063435567
Na V O
1 1 2
direct
  -0.0000021921188859   -0.0000000552950338    0.4999997229212173 Na
   0.9999975685249185    0.0000000000000000    0.0000000000000000 V
   0.3332852701174042    0.6665714783527487    0.2021520356639657 O
   0.6667122467869648    0.3334303443325821    0.7978480441849820 O
