Hf4 Si4 Ni4
1.0
   3.7930408432062110    0.0000000000000000    0.0000000000000000
   0.0000000000000000    6.4235858502371306    0.0000000000000000
   0.0000000000000000    0.0000000000000000    7.2138376430916944
Hf Si Ni
4 4 4
direct
   0.2499999444241279    0.0171919318793142    0.3139227775391155 Hf
   0.7499998332723837    0.4828083911305254    0.8139229408993423 Hf
   0.7499998332723837    0.9828087141403651    0.6860775491813379 Hf
   0.2499999444241279    0.5171922548891535    0.1860773858211113 Hf
   0.2499999444241279    0.2713516374854815    0.6141160853410995 Si
   0.7499998332723837    0.2286486855243580    0.1141159219808725 Si
   0.7499998332723837    0.7286490085341976    0.3858842413793543 Si
   0.2499999444241279    0.7713519604953212    0.8858844047395809 Si
   0.2499999444241279    0.1417898933608578    0.9370101481952678 Ni
   0.7499998332723837    0.3582104296489815    0.4370099848350414 Ni
   0.7499998332723837    0.8582107526588211    0.0629901785251855 Ni
   0.2499999444241279    0.6417902163706974    0.5629903418854123 Ni
