Pr4 Mg2
1.0
   8.9902436530164369    0.0063111859356131    0.0000000000000000
  -8.1685461591641015    3.7549117742897322   -0.0000000000000000
   0.0000000000000000    0.0000000000000000    5.6632486176616892
Pr Mg
4 2
direct
   0.0868028130883800    0.9131958882980069    0.2500000610223215 Pr
   0.7716074811438774    0.2283914389865280    0.2500000610223215 Pr
   0.9131956394154397    0.0868033259421707    0.7500001830669645 Pr
   0.2283909713599420    0.7716077752536494    0.7500001830669645 Pr
   0.4305859384304919    0.5694128727694157    0.2500000610223215 Mg
   0.5694125140733277    0.4305863414707619    0.7500001830669645 Mg
