Y1 B1 Rh3
1.0
   4.2012311049341058    0.0000000000000000    0.0000000000000000
  -0.0000000000000000    4.2012311049341058   -0.0000000000000000
   0.0000000000000000   -0.0000000000000000    4.2012311049341058
Y B Rh
1 1 3
direct
   0.0000000000000000    0.0000000000000000    0.0000000000000000 Y
   0.4999998684987711    0.4999998684987711    0.4999998684987711 B
   0.4999998684987711    0.0000000000000000    0.4999998684987711 Rh
   0.4999998684987711    0.4999998684987711    0.0000000000000000 Rh
   0.0000000000000000    0.4999998684987711    0.4999998684987711 Rh
