Er2 Fe4 Co4 B2
1.0
   4.9446747533206672   -0.0042041604225236    0.0002325199025232
   2.4084138521648830    4.3182051455174069    0.0002091544666254
  -0.0005032474934535   -0.0002408890206795    6.9314000978160388
Er Fe Co B
2 4 4 2
direct
   0.9999934601333658    0.0000039672448251    0.0020608105820403 Er
  -0.0000219420704365    0.0000008798113128    0.4960934162355981 Er
   0.4999674437301660    0.4999923993650527    0.2823141077009433 Fe
   0.4999931412662897    0.0000039317803833    0.7172148367069457 Fe
   0.9999856226552919    0.5000120438342206    0.7172768105011238 Fe
   0.4999901169179171    0.5000090466975943    0.7141724638140974 Fe
   0.6627989363413106    0.6630361582650814    0.0000156366489927 Co
   0.3371848211054754    0.3369664658913086   -0.0000014381125369 Co
   0.4999652803659660   -0.0000052696922370    0.2870437889181121 Co
  -0.0000263754818444    0.4999894842225143    0.2869709936761580 Co
   0.6695172397397920    0.6694456003369805    0.4984139594342734 B
   0.3304418751308174    0.3305554848465855    0.4984228571571148 B
