Rb3 B12 H12 I1
1.0
   4.8272828986473906   -5.1439932879455768   -0.0018215542258378
   4.8272828986473906    5.1439932879455768   -0.0018215542258378
  -0.6515500571292346   -0.0000000000000000    7.0241590475391762
Rb B H I
3 12 12 1
direct
   0.0000000246731455    0.4999997050823731    0.5000001783631403 Rb
   0.4999997146866782    0.4999997146866782    0.0000002211206210 Rb
   0.4999997050823730    0.0000000246731455    0.5000001783631403 Rb
   0.1214058712700607    0.1214058712700607    0.8413106173589516 B
   0.1214058850890870    0.8413099466625413    0.1214061572033612 B
   0.8413099466625412    0.1214058850890869    0.1214061572033612 B
   0.8785935593531097    0.1586894977796557    0.8785944206435403 B
   0.2331593943802623    0.0603086484174286    0.0603087490614643 B
   0.1586894977796557    0.8785935593531097    0.8785944206435403 B
   0.9396907993495127    0.9396907993495129    0.7668409871184905 B
   0.9396907960247683    0.7668400500619343    0.9396918287854372 B
   0.7668400500619342    0.9396907960247685    0.9396918287854372 B
   0.0603086450926838    0.0603086450926838    0.2331595907284109 B
   0.0603086484174285    0.2331593943802623    0.0603087490614643 B
   0.8785935731721359    0.8785935731721360    0.1586899604879497 B
   0.2089871374219082    0.2089871374219082    0.7296721537752965 H
   0.2089871474104459    0.7296715313382798    0.2089874815691414 H
   0.7296715313382797    0.2089871474104459    0.2089874815691414 H
   0.7910122970317505    0.2703279131039169    0.7910130962777607 H
   0.1029769484411796    0.1029769484411796    0.3989210472110752 H
   0.2703279131039168    0.7910122970317506    0.7910130962777607 H
   0.1029769541340879    0.3989207113549860    0.1029771261317572 H
   0.3989207113549860    0.1029769541340879    0.1029771261317572 H
   0.8970224903081088    0.6010787330872108    0.8970234517151446 H
   0.6010787330872107    0.8970224903081089    0.8970234517151446 H
   0.7910123070202887    0.7910123070202888    0.2703284240716047 H
   0.8970224960010171    0.8970224960010172    0.6010795306358264 H
   0.4999997222210983    0.4999997222210984    0.5000002889234508 I
