Sc6 In2
1.0
   3.1819156080483877   -5.5112383747601319    0.0000000000000000
   3.1819156080483877    5.5112383747601319   -0.0000000000000000
  -0.0000000000000000    0.0000000000000000    5.1860610232297528
Sc In
6 2
direct
   0.8316702180243335    0.6633403298198873    0.7499998520221202 Sc
   0.6633403298198876    0.8316702180243335    0.2499999506740401 Sc
   0.1683314308996387    0.8316699493857471    0.2499999506740401 Sc
   0.8316699493857470    0.1683314308996386    0.7499998520221202 Sc
   0.3366610504654984    0.1683311622610522    0.7499998520221202 Sc
   0.1683311622610522    0.3366610504654984    0.2499999506740401 Sc
   0.3333336409933335    0.6666677392920523    0.7499998520221202 In
   0.6666677392920523    0.3333336409933335    0.2499999506740401 In
