Mg2 Sb3 O8
1.0
   5.4999320828325216    0.2468388834433047   -1.2596086122213612
  -0.9226796304520033    5.4838214315151044   -2.9541355036349435
   0.1557047300640087   -0.3591461431364304    5.9957038753323637
Mg Sb O
2 3 8
direct
   0.5854522192397197    0.7059981528261809    0.4119958525359823 Mg
   0.4145453981592685    0.2940019955484997    0.5880018096514418 Mg
   0.4999997365202382    0.9999987853767335   -0.0000010267614285 Sb
   0.9999985916702376    0.7415274080832394   -0.0000008879944787 Sb
   0.9999986370986526    0.2584726857919792   -0.0000004406316449 Sb
   0.1411836896866663    0.4016502304848509    0.8033004738068722 O
   0.8588149277121686    0.5983479178906678    0.1966971883822031 O
   0.0986696069927780    0.8939026458932025    0.7878041831688274 O
   0.9013290104070076    0.1060955024830491    0.2121924790214544 O
   0.3448967507186360    0.3728063586680444    0.2668102050882910 O
   0.3448967017771484    0.8940039288550300    0.2668097224125083 O
   0.6551029156213463    0.1059942195206942    0.7331879397763664 O
   0.6551028666797645    0.6271927897073597    0.7331874570996565 O
