Sb8 Se12
1.0
   4.0414516851511406    0.0000000000000000    0.0000000000000000
   0.0000000000000000   11.5965699926890302    0.0000000000000000
   0.0000000000000000    0.0000000000000000   12.0611021780117191
Sb Se
8 12
direct
   0.7499996872749066    0.0397558260058381    0.1467743936129042 Sb
   0.2499998957583023    0.9602441746246037    0.8532254258056122 Sb
   0.2499998957583023    0.5397558263210599    0.3532255160963543 Sb
   0.7499996872749066    0.4602441743093835    0.6467743033221630 Sb
   0.2499998957583023    0.3298577526547798    0.0261601229708404 Sb
   0.7499996872749066    0.6701422479756630    0.9738396964476760 Sb
   0.7499996872749066    0.8298577529700005    0.4738397867384181 Sb
   0.2499998957583023    0.1701422476604415    0.5261600326800995 Sb
   0.2499998957583023    0.9473363966152473    0.3718834160150268 Se
   0.7499996872749066    0.0526636040151952    0.6281164034034896 Se
   0.2499998957583023    0.3042765503888423    0.7125543317776225 Se
   0.7499996872749066    0.6957234502416000    0.2874454876408938 Se
   0.7499996872749066    0.8042765507040636    0.7874453973501528 Se
   0.2499998957583023    0.8684156152217907    0.0537562492487278 Se
   0.7499996872749066    0.3684156149065700    0.4462436604605307 Se
   0.2499998957583023    0.6315843857238729    0.5537561589579858 Se
   0.2499998957583023    0.5526636043304164    0.8718833257242857 Se
   0.7499996872749066    0.1315843854086515    0.9462435701697895 Se
   0.2499998957583023    0.1957234499263787    0.2125544220683645 Se
   0.7499996872749066    0.4473363963000260    0.1281164936942315 Se
