Y1 Be2 Ir1
1.0
  -2.2199405948893074    2.2199405948893074    3.1361377902287133
   2.2199405948893074   -2.2199405948893074    3.1361377902287133
   2.2199405948893074    2.2199405948893074   -3.1361377902287133
Y Be Ir
1 2 1
direct
   0.7500000421662106    0.2500001761538742    0.4999998660123364 Y
   0.0000000000000000    0.0000000000000000    0.0000000000000000 Be
   0.2500001761538742    0.7500000421662105    0.4999998660123363 Be
   0.5000003523077484    0.5000003523077484    0.0000000000000000 Ir
