Mg6 Si6
1.0
   6.0666363824894391    0.6515969487672103    0.7868816294469764
   4.4326361333882387    4.1928978630498817    0.7868816294469757
   0.2485353858139309    0.1146773155290272   10.1559270666397659
Mg Si
6 6
direct
   0.0718027594083063    0.0718030418700677    0.8678901881882245 Mg
   0.9281979479596231    0.9281987319524867    0.1321095875154686 Mg
   0.4961759330103235    0.4961764243983806    0.3501694195430305 Mg
   0.5038247743576053    0.5038253494241728    0.6498303561606628 Mg
   0.2150834024627111    0.2150836147373404    0.1489567426318895 Mg
   0.7849173049052172    0.7849181590852130    0.8510430330718038 Mg
   0.2154096751571201    0.2154100154199331    0.6428186801441261 Si
   0.1502881977095606    0.1502884288982763    0.4244824548479303 Si
   0.4119675464368923    0.4119681231010123    0.9429297574030677 Si
   0.5880331609310364    0.5880336507215413    0.0570700183006266 Si
   0.7845910322108088    0.7845917584026209    0.3571810955595683 Si
   0.8497125096583680    0.8497133449242773    0.5755173208557629 Si
