Mn2 Al12
1.0
   4.9777236961470051   -0.0057108740383646   -0.0000000000000000
  -0.7455158844115884    4.9215824769413281    0.0000000000000000
  -0.0000000000000000   -0.0000000000000000    8.8743663708253617
Mn Al
2 12
direct
   0.5451025817648382    0.5451032854020846    0.7500003067127123 Mn
   0.4548957998364880    0.4548963870314383    0.2500001022375707 Mn
   0.0340060076359797    0.3989656048541180    0.7500003067127123 Al
   0.9659923739653464    0.6010340675794048    0.2500001022375707 Al
   0.3267302613437502    0.6732686153869188    0.0000000000000000 Al
   0.6732681202575760    0.3267310570466039    0.5000002044751415 Al
   0.6732681202575760    0.3267310570466039    0.0000000000000000 Al
   0.3267302613437502    0.6732686153869188    0.5000002044751415 Al
   0.1386535363061533    0.1386537152848736    0.1014067317343738 Al
   0.8613448452951729    0.8613459571486489    0.6014069362095156 Al
   0.1386535363061533    0.1386537152848736    0.3985934727407677 Al
   0.8613448452951729    0.8613459571486489    0.8985936772159090 Al
   0.6010328979187110    0.9659932270743012    0.2500001022375707 Al
   0.3989654836826154    0.0340064453592215    0.7500003067127123 Al
