Ti2 Ni2 P4 O16
1.0
   0.0000000000000000    4.8082186504931794    0.0209058592719613
   5.7924543736259384    0.0000000000000000    0.0000000000000000
   0.0000000000000000   -0.1634409576494787   -9.8419391533684344
Ti Ni P O
2 2 4 16
direct
   0.5469244714097337    0.2499998112360644    0.2290636697656154 Ti
   0.4530759970829516    0.7499994337081931    0.7709359965295951 Ti
   0.0553422851867164    0.7499994337081931    0.2727606394965770 Ni
   0.9446581833059695    0.2499998112360644    0.7272390267986335 Ni
   0.5837173147497884    0.7499994337081931    0.0940296940688131 P
   0.1265300915910297    0.2499998112360644    0.4114972497976320 P
   0.8734703769016564    0.7499994337081931    0.5885024164975783 P
   0.4162831537428976    0.2499998112360644    0.9059699722263975 P
   0.2691371775460725    0.0395427194819234    0.8318863965528015 O
   0.2691371775460725    0.4604569029902053    0.8318863965528015 O
   0.7232663956932759    0.5463850137976110    0.6654199850276362 O
   0.7232663956932759    0.9536138536187750    0.6654199850276362 O
   0.1849854333380618    0.7499994337081931    0.6280448761826343 O
   0.1728991772842900    0.2499998112360644    0.5622751356036155 O
   0.8271012912083959    0.7499994337081931    0.4377245306915952 O
   0.7308632909466125    0.5395423419540517    0.1681132697424096 O
   0.2767340727994100    0.4536142311466471    0.3345796812675743 O
   0.2767340727994100    0.0463853913254820    0.3345796812675743 O
   0.7278828092556326    0.2499998112360644    0.8928813251277696 O
   0.7308632909466125    0.9604565254623344    0.1681132697424096 O
   0.2721176592370532    0.7499994337081931    0.1071183411674407 O
   0.3421778176552991    0.2499998112360644    0.0583516747838475 O
   0.8150150351546239    0.2499998112360644    0.3719547901125762 O
   0.6578226508373868    0.7499994337081931    0.9416479915113628 O
