Sr2 Zn2 Pb2
1.0
   2.3786054212191385   -4.1198663035469751    0.0000000000000000
   2.3786054212191385    4.1198663035469751   -0.0000000000000000
   0.0000000000000000   -0.0000000000000000    9.0346955441107735
Sr Zn Pb
2 2 2
direct
   0.0000000000000000    0.0000000000000000    0.5000002465987484 Sr
   0.0000000000000000    0.0000000000000000    0.0000000000000000 Sr
   0.3333338129546945    0.6666681120307701    0.2500001232993742 Zn
   0.6666681120307700    0.3333338129546945    0.7500003698981227 Zn
   0.3333338129546945    0.6666681120307701    0.7500003698981227 Pb
   0.6666681120307700    0.3333338129546945    0.2500001232993742 Pb
