Na6 Cr2 Cl12
1.0
   3.3908793527208965   -5.8731756097867569   -0.0000000000000000
   3.3908793527208965    5.8731756097867569    0.0000000000000000
   0.0000000000000000   -0.0000000000000000   11.9696890964247569
Na Cr Cl
6 2 12
direct
   0.0000000000000000    0.0000000000000000    0.2500000000000000 Na
   0.0000000000000000    0.0000000000000000    0.7500000000000000 Na
   0.3333330000000032    0.6666669999999968    0.5427915979223507 Na
   0.3333330000000032    0.6666669999999968    0.9572084020776493 Na
   0.6666669999999968    0.3333330000000032    0.4572084020776495 Na
   0.6666669999999968    0.3333330000000032    0.0427915979223506 Na
   0.6666669999999968    0.3333330000000032    0.7500000000000000 Cr
   0.3333330000000032    0.6666669999999968    0.2500000000000000 Cr
   0.6784324594889360    0.0560761909276841    0.6338162128842560 Cl
   0.9439238090719593    0.6223552685602429    0.6338162128842560 Cl
   0.9439238090723160    0.3215675405110638    0.8661837871157440 Cl
   0.6784324594879246    0.6223552685608981    0.8661837871157440 Cl
   0.0560761909280407    0.3776447314397571    0.3661837871157442 Cl
   0.3215675405120755    0.3776447314391019    0.1338162128842560 Cl
   0.6223552685608981    0.6784324594879246    0.3661837871157442 Cl
   0.3215675405110637    0.9439238090723160    0.3661837871157442 Cl
   0.3776447314391019    0.3215675405120755    0.6338162128842560 Cl
   0.0560761909276841    0.6784324594889360    0.1338162128842560 Cl
   0.3776447314397570    0.0560761909280407    0.8661837871157440 Cl
   0.6223552685602428    0.9439238090719594    0.1338162128842560 Cl
