Ba2 Zr1 Hg1
1.0
  -0.0000000000000000    4.1727652488338958    4.1727652488338958
   4.1727652488338958   -0.0000000000000000    4.1727652488338958
   4.1727652488338958    4.1727652488338958   -0.0000000000000000
Ba Zr Hg
2 1 1
direct
   0.2500000000000000    0.2500000000000000    0.2500000000000000 Ba
   0.7500000000000000    0.7500000000000000    0.7500000000000000 Ba
   0.5000000000000000    0.5000000000000000    0.5000000000000000 Zr
   0.0000000000000000    0.0000000000000000    0.0000000000000000 Hg
