Pr2 Cu1 Au1
1.0
   0.0000000000000000    3.6762111670725250    3.6762111670725250
   3.6762111670725250   -0.0000000000000000    3.6762111670725250
   3.6762111670725250    3.6762111670725250    0.0000000000000000
Pr Cu Au
2 1 1
direct
   0.0000000000000000    0.0000000000000000    0.0000000000000000 Pr
   0.5000000000000001    0.5000000000000000    0.4999999999999999 Pr
   0.7500000000000000    0.7500000000000000    0.7500000000000000 Cu
   0.2500000000000001    0.2500000000000000    0.2500000000000000 Au
