In2 Ag3 Sb1 Se6
1.0
   4.0405864882795273    0.0000000007067117    0.0000000000000002
  -2.0202935220226275    3.4992503846024636    0.0000000000000003
  -0.0000000000000004    0.0000000000000001   19.8266810653040721
In Ag Sb Se
2 3 1 6
direct
   0.6666666666666643    0.3333333333333356    0.3351665632609259 In
   0.3333333333333357    0.6666666666666642    0.6648334367390738 In
   0.6666666666666643    0.3333333333333356    0.8284335542713710 Ag
   0.3333333333333357    0.6666666666666642    0.1715664457286290 Ag
   0.0000000000000000    0.0000000000000000    0.5000000000000000 Ag
   0.0000000000000000    0.0000000000000000    0.0000000000000000 Sb
   0.3333333333333357    0.6666666666666642    0.9126899907867477 Se
   0.0000000000000000    0.0000000000000000    0.2513878538464818 Se
   0.6666666666666643    0.3333333333333356    0.5840569982925455 Se
   0.6666666666666643    0.3333333333333356    0.0873100092132524 Se
   0.3333333333333357    0.6666666666666642    0.4159430017074546 Se
   0.0000000000000000    0.0000000000000000    0.7486121461535182 Se
