Mn4 Te4
1.0
   0.0000000000000000   -4.0624677706471433    0.0000000000000003
  -8.1217446001202394    0.0000000000000000    0.0000000000000000
   0.0000000000000000   -0.0000000000000001   -5.7479373564753846
Mn Te
4 4
direct
   0.7500000000000000    0.3749854561930154    0.2500812951598758 Mn
   0.7500000000000000    0.8749854561930149    0.2499187048401241 Mn
   0.2500000000000000    0.6250145438069852    0.7499187048401248 Mn
   0.2500000000000000    0.1250145438069848    0.7500812951598751 Mn
   0.7500000000000000    0.3750130430270663    0.7500428602929057 Te
   0.7500000000000000    0.8750130430270664    0.7499571397070942 Te
   0.2500000000000000    0.6249869569729336    0.2499571397070938 Te
   0.2500000000000000    0.1249869569729337    0.2500428602929061 Te
