Er2 Os1 Pd1
1.0
   0.0000030000000000    3.4071220000000002    3.4070960000000001
   3.4071210000000001    0.0000060000000000    3.4070930000000001
   3.4071240000000000    3.4071210000000001    0.0000030000000000
Er Os Pd
2 1 1
direct
   0.0000000000000000    0.0000000000000000    0.0000000000000000 Er
   0.5000009999999974    0.4999979999999979    0.5000009999999976 Er
   0.2500009999999975    0.2500000000000000    0.2500009999999975 Os
   0.7499979999999978    0.7500020000000021    0.7499990000000026 Pd
