Rb2 Ag1 Cl4
1.0
  -2.5206135905177640    2.5206135905177640    8.1691656869496168
   2.5206135905177640   -2.5206135905177640    8.1691656869496168
   2.5206135905177640    2.5206135905177640   -8.1691656869496168
Rb Ag Cl
2 1 4
direct
   0.3594749233169400    0.3594749233169400    0.0000000000000000 Rb
   0.6405250766830605    0.6405250766830604    0.0000000000000001 Rb
   0.0000000000000000    0.0000000000000000    0.0000000000000000 Ag
   0.1613674204697952    0.1613674204697952    0.0000000000000000 Cl
   0.8386325795302051    0.8386325795302051    0.0000000000000001 Cl
   0.5000000000000001    0.0000000000000001    0.5000000000000001 Cl
   0.0000000000000002    0.5000000000000001    0.5000000000000001 Cl
