Pm1 Nd1 Zn2
1.0
   4.4780614287596325   -0.0000000017016216    2.5854100857509934
   1.4926874736318181    4.2219562683081620    2.5854100857509934
  -0.0000000017616484   -0.0000000012456733    5.1708191776045167
Pm Nd Zn
1 1 2
direct
   0.0000000000000000    0.0000000000000000    0.0000000000000000 Pm
   0.5000000000000001    0.5000000000000000    0.4999999999999999 Nd
   0.2500000000000001    0.2500000000000000    0.2500000000000000 Zn
   0.7499999999999999    0.7500000000000001    0.7500000000000001 Zn
