Ta6 N3
1.0
  -0.0000276416809016    0.0000482550021712   -4.9679971207548137
  -2.6585157160801431   -4.6046058405419537    0.0000321228633541
  -2.6584462026473337    4.6045653894148755   -0.0000642457426452
Ta N
6 3
direct
   0.2464553176855706    0.3332320202263352    0.3332383776040003 Ta
   0.2464553176855707    0.6667679797736648    0.0000053573776677 Ta
   0.2464727776624411    0.0000000000000000    0.6667743771236500 Ta
   0.7535446823144293    0.6667679797736649    0.6667616223959996 Ta
   0.7535446823144293    0.3332320202263354    0.9999946426223323 Ta
   0.7535272223375589    0.0000000000000000    0.3332256228763501 Ta
   0.4999999999999999    0.6666525936098785    0.3333272968049402 N
   0.5000000000000000    0.3333474063901218    0.6666727031950597 N
   0.0000000000000000    0.0000000000000000    0.0000000000000000 N
