Hf2 Co1 Ir1
1.0
  -0.0000000000000000    3.2179513496937706    3.2179513496937706
   3.2179513496937706   -0.0000010031537808    3.2179523528475515
   3.2179513496937706    3.2179523528475515   -0.0000010031537808
Hf Co Ir
2 1 1
direct
   0.0000000000000000    0.0000000000000000    0.0000000000000000 Hf
   0.5000009999999974    0.5000009999999975    0.5000009999999975 Hf
   0.2500000000000000    0.2500000000000000    0.2500000000000000 Co
   0.7499990000000025    0.7499990000000025    0.7499990000000025 Ir
