Zr1 Be2 Cl1
1.0
   2.9485091593889035    0.0000000000000000    0.0000000000000000
   0.0000000000000000    2.9485091593889035   -0.0000000000000000
   0.0000000000000000    0.0000000000000000    7.9599453377171354
Zr Be Cl
1 2 1
direct
   0.4999999999999999    0.4999999999999999    0.7820305883222965 Zr
   0.0000000000000000    0.0000000000000000    0.0243237702759667 Be
   0.4999999999999999    0.4999999999999999    0.1318260836144185 Be
   0.0000000000000000    0.0000000000000000    0.5618185577873139 Cl
