Li6 Mn2 Co2 O10
1.0
   2.8276403785271422   -0.0709796350258057    0.1178551850967009
   1.4714304154957589    2.4156739745295726    0.1178551850967009
   0.4422295807391224    0.2411900720876149   24.3066967499477791
Li Mn Co O
6 2 2 10
direct
   0.3015061548200085    0.3015061548200086    0.0940351910193588 Li
   0.8979690704818708    0.8979690704818711    0.3088014724989326 Li
   0.4988529909918871    0.4988529909918871    0.5009434182952561 Li
   0.0994348320881259    0.0994348320881259    0.7026866706010865 Li
   0.7019276167123266    0.7019276167123267    0.8941497603122559 Li
   0.1989777930422238    0.1989777930422239    0.4030429854718310 Li
   0.0017104487159454    0.0017104487159454    0.9947859727753376 Mn
   0.6012174774118966    0.6012174774118966    0.1929889298909807 Mn
   0.4002848402894079    0.4002848402894080    0.8002622529177164 Co
   0.7980139184176874    0.7980139184176877    0.6083495536411478 Co
   0.7478123482256784    0.7478123482256787    0.7586951226221471 O
   0.6529420300480074    0.6529420300480075    0.0399452094938187 O
   0.2535387189925216    0.2535387189925218    0.2348203324800112 O
   0.8471493541026478    0.8471493541026478    0.4577653842893799 O
   0.4498939995898832    0.4498939995898831    0.6516699350476374 O
   0.0523491244979912    0.0523491244979912    0.8430637991932192 O
   0.9503339433557041    0.9503339433557045    0.1468373923124712 O
   0.5508230931313892    0.5508230931313892    0.3484550186630160 O
   0.1449604080932877    0.1449604080932878    0.5685906951573996 O
   0.3502998369915067    0.3502998369915067    0.9501109033170035 O
