Sn2 Hg6
1.0
   6.4954402568020972    0.0000000024753942    0.0000000000000009
  -3.2477201674922815    5.6252162485854003    0.0000000000000001
  -0.0000000000000001    0.0000000000000001    5.7628505006595638
Sn Hg
2 6
direct
   0.3333333333333357    0.6666666666666643    0.7500000000000000 Sn
   0.6666666666666643    0.3333333333333357    0.2500000000000000 Sn
   0.1664198305163703    0.3328406610341703    0.2500000000000000 Hg
   0.6671593389658298    0.8335801694836290    0.2500000000000000 Hg
   0.1664198305177952    0.8335801694822046    0.2500000000000000 Hg
   0.8335801694836291    0.6671593389658299    0.7500000000000000 Hg
   0.3328406610341703    0.1664198305163703    0.7500000000000000 Hg
   0.8335801694822046    0.1664198305177952    0.7500000000000000 Hg
