Fe2 Br6
1.0
   5.5381170317304820    0.0122906739848235    4.1625456316002438
   2.0854228837437825    5.1304865460176421    4.1625474635574911
   0.0182187304860045    0.0122879174267840    6.9280008947918219
Fe Br
2 6
direct
   0.3335487888596122    0.3335487888653817    0.3335487888639461 Fe
   0.6664512111403879    0.6664512111346182    0.6664512111360538 Fe
   0.7216099167093183    0.4334615359087185    0.0760073845444697 Br
   0.0760073844916004    0.7216099167338634    0.4334615359606916 Br
   0.4334615359435697    0.0760073845649557    0.7216099166866876 Br
   0.2783900832906817    0.5665384640912815    0.9239926154555301 Br
   0.9239926155083994    0.2783900832661367    0.5665384640393084 Br
   0.5665384640564302    0.9239926154350445    0.2783900833133121 Br
