Be2 Zn1 Pb1
1.0
   3.1488677292178124    0.0000000000000000    0.0000000000000000
   0.0000000000000000    3.1488677292178124   -0.0000000000000000
   0.0000000000000000    0.0000000000000000    6.7343105632388962
Be Zn Pb
2 1 1
direct
   0.0000000000000000    0.0000000000000000    0.6646751278205842 Be
   0.0000000000000000    0.0000000000000000    0.3353248721794162 Be
   0.5000000000000000    0.5000000000000000    0.5000000000000000 Zn
   0.5000000000000000    0.5000000000000000    0.0000000000000000 Pb
