Nb1 V2 Fe1
1.0
  -0.0000000000000000    3.0086175494789575    3.0086175494789575
   3.0086175494789575    0.0000000000000000    3.0086175494789575
   3.0086175494789575    3.0086175494789575    0.0000000000000000
Nb V Fe
1 2 1
direct
   0.7500000000000000    0.7500000000000000    0.7500000000000000 Nb
   0.5000000000000001    0.5000000000000000    0.4999999999999999 V
   0.0000000000000000    0.0000000000000000    0.0000000000000000 V
   0.2500000000000001    0.2500000000000000    0.2500000000000000 Fe
