K2 Rb1 Sb1
1.0
  -0.0000000000000000    4.2409789073800388    4.2409789073800388
   4.2409789073800388   -0.0000000000000000    4.2409789073800388
   4.2409789073800388    4.2409789073800388    0.0000000000000000
K Rb Sb
2 1 1
direct
   0.0000000000000000    0.0000000000000000    0.0000000000000000 K
   0.5000000000000000    0.5000000000000000    0.5000000000000000 K
   0.2499990000000025    0.2499990000000025    0.2499990000000025 Rb
   0.7499990000000025    0.7499990000000025    0.7499990000000025 Sb
