Mn3 Sn1 O8
1.0
   6.0902565480468294    0.2176898228428143    0.1539291133267406
   3.2336527110310378    5.1654733137338011    0.1539291360028393
   3.2336527205244958    1.8669500344074750    4.8187452102146340
Mn Sn O
3 1 8
direct
  -0.0000000000000001    0.5000000000000000    0.5000000000000000 Mn
   0.4999999999999999    0.0000000000000000    0.5000000000000000 Mn
   0.4999999999999999    0.5000000000000001   -0.0000000000000000 Mn
   0.5000000000000000    0.5000000000000000    0.5000000000000000 Sn
   0.2693752017749563    0.2693752017640589    0.2693752017689038 O
   0.2509524885901793    0.2509524885878787    0.7098260993362089 O
   0.2509524885981523    0.7098260993333014    0.2509524885839632 O
   0.7098260993107995    0.2509524886069591    0.2509524885950707 O
   0.2901739006892002    0.7490475113930409    0.7490475114049295 O
   0.7490475114018477    0.2901739006666983    0.7490475114160368 O
   0.7490475114098205    0.7490475114121212    0.2901739006637913 O
   0.7306247982250438    0.7306247982359412    0.7306247982310961 O
