Y2 Al2 O6
1.0
   5.2238634305109048   -0.0031023868302805   -0.0022079439549444
   2.5404092569005612    4.5645458360335711   -0.0022079428758525
   2.5404092561235943    1.4924683024331533    4.3136549683384349
Y Al O
2 2 6
direct
   0.2500000000000000    0.2500000000000001    0.2500000000000000 Y
   0.7500000000000000    0.7500000000000000    0.7500000000000000 Y
   0.0000000000000000    0.0000000000000000    0.0000000000000000 Al
   0.5000000000000000    0.5000000000000001    0.5000000000000000 Al
   0.1749765510916522    0.7499999999999355    0.3250234489084882 O
   0.3250234489082060    0.1749765510918197    0.7499999999999226 O
   0.2499999999998579    0.6749765510917554    0.8250234489084108 O
   0.7500000000001420    0.3250234489082449    0.1749765510915890 O
   0.6749765510917940    0.8250234489081802    0.2500000000000773 O
   0.8250234489083479    0.2500000000000647    0.6749765510915117 O
