Al2 Co4 O8
1.0
   5.0679383814658747    0.0420614414174349    2.8577862061388410
   1.6888151952172206    4.7784582253142274    2.8577861991474052
   0.0589546104728898    0.0420614379756497    5.8178576368779096
Al Co O
2 4 8
direct
   0.6250011862607460    0.6250011862599774    0.6250011862616834 Al
   0.3749988137392541    0.3749988137400224    0.3749988137383167 Al
   0.0000000000000000    0.4999999999999999    0.0000000000000000 Co
   0.0000000000000000    0.0000000000000000    0.0000000000000000 Co
   0.5000000000000000    0.0000000000000000   -0.0000000000000000 Co
  -0.0000000000000000    0.0000000000000000    0.5000000000000000 Co
   0.2472042505649757    0.7509353509150014    0.7509353509180798 O
   0.2490646490823181    0.2490646490861214    0.7527957494339147 O
   0.2490646490846724    0.7527957494315359    0.2490646490853977 O
   0.2490698943253461    0.2490698943251206    0.2490698943256210 O
   0.7509353509176822    0.7509353509138784    0.2472042505660854 O
   0.7527957494350246    0.2490646490849984    0.2490646490819201 O
   0.7509353509153276    0.2472042505684640    0.7509353509146021 O
   0.7509301056746539    0.7509301056748792    0.7509301056743789 O
