Re4 Mo2 Se8
1.0
   6.7127254551521398   -0.0114202630979552   -0.4332562839715040
  -0.4544986761133755    6.6974120672965993   -0.3974425157397802
  -0.0088075114704337    0.0007103883147067    6.7314864279094540
Re Mo Se
4 2 8
direct
   0.5462999791984433    0.4135799341210475    0.2378387979555429 Re
   0.7637455793797222    0.4551994559572183    0.5875854942164221 Re
   0.5846340396210685    0.7643336501817356    0.4526279595511574 Re
   0.4527713640385394    0.5869051402467291    0.7639470134062198 Re
   0.2346668829847340    0.5432941866374569    0.4125125864142646 Mo
   0.4127066967248487    0.2356009438327928    0.5477846645936265 Mo
   0.3697025219432755    0.7329135483780086    0.1223868153473448 Se
   0.1233539641307142    0.3692216957059914    0.7381388378502370 Se
   0.7395980656110158    0.1265552726581463    0.3690964028236778 Se
   0.6306284546345291    0.2691517507193261    0.8784206302142610 Se
   0.8720639594210333    0.6314153822613354    0.2667538458371160 Se
   0.2678740561040932    0.8733699786287239    0.6280105733292087 Se
   0.2140292775772277    0.2080399278403628    0.2074155800505696 Se
   0.7879251586307604    0.7904191328311178    0.7874827984103546 Se
