Li4 V1 F8
1.0
   6.0354927792235351    0.0000000000000000    0.0000000000000000
   0.0000000000000000    4.6290783012877998    1.8468260276034001
   0.0000000000000000   -0.0651381794950306    5.1541746009995659
Li V F
4 1 8
direct
   0.8219227825333171    0.0000000000000000    0.5000000000000000 Li
   0.0067158731303936    0.5000000000000000    0.5000000000000000 Li
   0.7674151127357491    0.5000000000000000   -0.0000000000000000 Li
   0.2037887087532733    0.5000000000000000   -0.0000000000000000 Li
   0.4935846149220203    0.5000000000000000    0.5000000000000000 V
   0.5127566471402898    0.7087873422335580    0.7360969498332188 F
   0.9825431814076755    0.7030357052920462    0.7426254651802328 F
   0.7220610781199258    0.7397225375374418    0.2871906338422384 F
   0.2726835472947289    0.7150741291849816    0.2697414839934882 F
   0.2726835472947289    0.2849258708150189    0.7302585160065113 F
   0.7220610781199258    0.2602774624625583    0.7128093661577618 F
   0.9825431814076755    0.2969642947079538    0.2573745348197672 F
   0.5127566471402898    0.2912126577664417    0.2639030501667812 F
