Ti1 H16 C9 O4
1.0
   4.7068880291610364   -0.0712409409524466   -0.9749718658162450
  -1.2481595350561501    7.1306346962296772    0.1001026425711149
  -0.1304133654447939    0.2277766347958643    7.7801046750104579
Ti H C O
1 16 9 4
direct
   0.8177497792481072    0.2663692646630168    0.2453676511199763 Ti
   0.8617589458777083    0.4069638039266139    0.8236767783016683 H
   0.1123901257264450    0.3455991891923806    0.7084494267801796 H
   0.1984126518147492    0.7230737196784071    0.8967997597963334 H
   0.0273528723942626    0.6814465495739975    0.6741007730828286 H
   0.6144716255793118    0.5936351288007314    0.2850056920380437 H
   0.6657528483830187    0.7185692377153958    0.8424560431348674 H
   0.5259726735512840    0.5623376155879777    0.6639071050566914 H
  -0.0340220835027846    0.5769846506958514    0.4181037763316314 H
   0.3335826662678932    0.8024391665365892    0.4711187632283603 H
   0.7093045122141247    0.8742483926191481    0.5508879244454954 H
   0.3252167588472428   -0.0049548839928225    0.1102374123162342 H
   0.6431321785391905    0.1071296476186252    0.7428377728089954 H
   0.2694364392903149    0.0095649611546469    0.7264232801042279 H
   0.6297639438665418    0.9033220322619482    0.2396987712755342 H
   0.9305314651939225    0.6447319595722694    0.1897296342904116 H
   0.6350322068948104    0.9819402144313621    0.0192381452075755 H
   0.0909426473607721    0.4299108959393660    0.8173144206529552 C
   0.1950498934198770    0.6398115303079807    0.7811807510892459 C
   0.4882110897026787    0.6867227441533923    0.7258702536049269 C
   0.4995364232739554    0.8475997216383216    0.5905782132384998 C
   0.2543504061990912    0.3585108443358718    0.9878673891006010 C
   0.3629239088720744    0.1572025073399890    0.4971576595054435 C
   0.8257836379457403    0.5572930409809780    0.2852346770352979 C
   0.5616908141852999    0.0069790234357539    0.1389400278893145 C
   0.4459638956974495    0.0344767798916423    0.6549304411097817 C
   0.5188037226072461    0.3525509417014970    0.0117462256795284 O
   0.5531460676415464    0.2364269503859356    0.4158207388386206 O
   0.1062907373670918    0.3036992563200268    0.1084906082454442 O
   0.0940341455410373    0.1714761135330946    0.4490238846912878 O
