K8 Bi4 Mo4 P4 O32
1.0
   6.7733720243184070    0.0000000000992552    2.0480181254421170
   1.9266861824951023   10.5641656678156419    5.8526401345862249
  -0.0015079193872136   -0.0317011121638266   12.2297220714905617
K Bi Mo P O
8 4 4 4 32
direct
   0.1219813094694442    0.7649142120863465    0.4242780362094291 K
   0.6219813094694423    0.9242780362094298    0.2649142120863411 K
   0.8111735577652389    0.5757219637905707    0.2350857879136581 K
   0.8780186905305556    0.2350857879136538    0.5757219637905716 K
   0.1888264422347607    0.4242780362094298    0.7649142120863420 K
   0.3111735577652374    0.7350857879136545    0.0757219637905706 K
   0.3780186905305574    0.0757219637905697    0.7350857879136588 K
   0.6888264422347625    0.2649142120863454    0.9242780362094293 K
   0.2499999999999996    0.8278257490895405    0.6721742509104593 Bi
   0.7500000000000001    0.6721742509104595    0.8278257490895408 Bi
   0.2499999999999996    0.3278257490895405    0.1721742509104596 Bi
   0.7500000000000003    0.1721742509104595    0.3278257490895405 Bi
   0.1688013514295885    0.0811986485704119    0.0811986485704107 Mo
   0.3311986485704113    0.4188013514295882    0.4188013514295896 Mo
   0.8311986485704115    0.9188013514295881    0.9188013514295887 Mo
   0.6688013514295882    0.5811986485704118    0.5811986485704113 Mo
   0.2499999999999993    0.0718266021229227    0.4281733978770789 P
   0.7500000000000002    0.9281733978770775    0.5718266021229206 P
   0.2499999999999993    0.5718266021229225    0.9281733978770794 P
   0.7500000000000002    0.4281733978770773    0.0718266021229208 P
   0.4303567877402902    0.1385548415375722    0.3384350601476259 O
   0.4130460670098020    0.6619430188775112    0.6019394831513711 O
   0.6616038132358515    0.4188254286912864    0.6437994788364260 O
   0.1601741882484006    0.5613463313944289    0.0632096329357566 O
   0.1616038132358529    0.1437994788364224    0.9188254286912884 O
   0.6769285690386786    0.8380569811224923    0.8980605168486305 O
   0.7152698474214169    0.0632096329357593    0.5613463313944292 O
   0.9130460670097988    0.1019394831513681    0.1619430188775060 O
   0.7242307207635684    0.0811745713087030    0.8562005211635715 O
   0.2152698474214153    0.0613463313944329    0.5632096329357563 O
   0.0869539329902011    0.8980605168486313    0.8380569811224943 O
   0.8230714309613181    0.6019394831513643    0.6619430188775043 O
   0.3383961867641482    0.5811745713087134    0.3562005211635746 O
   0.6601741882484026    0.5632096329357545    0.0613463313944295 O
   0.3398258117515974    0.4367903670642452    0.9386536686055704 O
   0.9073466894254845    0.3614451584624292    0.1615649398523734 O
   0.0696432122597070    0.1615649398523732    0.3614451584624304 O
   0.3230714309613212    0.1619430188775076    0.1019394831513692 O
   0.7757692792364327    0.6437994788364330    0.4188254286912911 O
   0.2242307207635672    0.3562005211635672    0.5811745713087088 O
   0.2757692792364317    0.9188254286912971    0.1437994788364283 O
   0.1769285690386821    0.3980605168486355    0.3380569811224964 O
   0.7847301525785845    0.9386536686055668    0.4367903670642438 O
   0.5696432122597097    0.8614451584624276    0.6615649398523741 O
   0.8398258117515993    0.4386536686055715    0.9367903670642435 O
   0.2847301525785830    0.9367903670642408    0.4386536686055709 O
   0.4073466894254815    0.6615649398523746    0.8614451584624294 O
   0.0926533105745153    0.6385548415375710    0.8384350601476269 O
   0.5869539329901979    0.3380569811224886    0.3980605168486286 O
   0.5926533105745181    0.3384350601476255    0.1385548415375706 O
   0.8383961867641468    0.8562005211635779    0.0811745713087118 O
   0.9303567877402926    0.8384350601476269    0.6385548415375703 O
