Hf1 Mn1 Rh2
1.0
   0.0000037865676484    3.1544285478835121    3.1544321802884037
   3.1544285929080202    0.0000072718169038    3.1544276981837713
   3.1544326359209145    3.1544281098367297    0.0000042245467194
Hf Mn Rh
1 1 2
direct
   0.2499999999994845    0.2500008153122671    0.2500000613155016 Hf
   0.7500000000033691    0.7500008934292566    0.7500000360006523 Mn
   0.0000008171550140    0.9999984539296024    0.0000000431335874 Rh
   0.4999991828421324    0.5000008373288644    0.5000008595502559 Rh
