Pr6 B2 W2 O18
1.0
   8.8033920201980838   -0.0000000103169333    0.0000000000000000
  -4.4016969854323778    7.6239616321078634    0.0000000000000000
   0.0000000000000000    0.0000000000000000    5.5905397167154671
Pr B W O
6 2 2 18
direct
   0.7254893778205581    0.6406742947581687    0.2032046516517455 Pr
   0.2745106221794427    0.3593257052418319    0.7032046516517456 Pr
   0.6406742947579265    0.9151849169371405    0.7032046516517456 Pr
   0.9151849169373689    0.2745106221789727    0.2032046516517455 Pr
   0.3593257052420735    0.0848150830628592    0.2032046516517455 Pr
   0.0848150830626308    0.7254893778210276    0.7032046516517456 Pr
   0.0000000000000000    0.0000000000000000    0.8599569653879816 B
   0.0000000000000000    0.0000000000000000    0.3599569653879817 B
   0.3333330000000032    0.6666669999999967    0.2453089957500062 W
   0.6666669999999968    0.3333330000000032    0.7453089957500059 W
   0.2714820883027572    0.7998172845725233    0.0418978714953655 O
   0.9542455564825343    0.1289922664270638    0.8521111287468967 O
   0.5177180755129571    0.3788592566942917    0.9707640277266625 O
   0.8252532900562123    0.9542455564828751    0.3521111287468973 O
   0.3788592566927271    0.8611421811816032    0.4707640277266624 O
   0.6211407433072730    0.1388578188183967    0.9707640277266625 O
   0.7998172845687394    0.5283351962688418    0.5418978714953661 O
   0.4822819244870419    0.6211407433057088    0.4707640277266624 O
   0.4716648037340176    0.2714820883036811    0.5418978714953661 O
   0.1289922664263221    0.1747467099441889    0.3521111287468973 O
   0.7285179116972424    0.2001827154274770    0.5418978714953661 O
   0.8611421811797740    0.4822819244873071    0.9707640277266625 O
   0.5283351962659827    0.7285179116963186    0.0418978714953655 O
   0.1747467099437875    0.0457544435171252    0.8521111287468967 O
   0.0457544435174653    0.8710077335729363    0.3521111287468973 O
   0.8710077335736777    0.8252532900558105    0.8521111287468967 O
   0.2001827154312608    0.4716648037311578    0.0418978714953655 O
   0.1388578188202260    0.5177180755126926    0.4707640277266624 O
