Ru2 Cl6
1.0
   3.0338243952513655   -5.2547378783103502   -0.0000000000000000
   3.0338243952513655    5.2547378783103502    0.0000000000000000
  -0.0000000000000000    0.0000000000000000    5.6739415242236690
Ru Cl
2 6
direct
   0.0000000000000000    0.0000000000000000    0.5000000000000000 Ru
   0.0000000000000000    0.0000000000000000    0.0000000000000000 Ru
  -0.0000000000041252    0.3127479315675533    0.2500000000000000 Cl
   0.3127479315634281    0.3127479315634281    0.7499999999999999 Cl
   0.0000000000041252    0.6872520684324467    0.7499999999999999 Cl
   0.6872520684365719    0.6872520684365719    0.2500000000000000 Cl
   0.3127479315675533   -0.0000000000041252    0.2500000000000000 Cl
   0.6872520684324466    0.0000000000041252    0.7499999999999999 Cl
