Tm2 Ta2 O8
1.0
   3.8416284365035871    0.0000000000000000    0.0000000000000000
  -1.9208142182517935    7.6489683474272052    0.0000000000000000
   0.0000000000000000    0.0000000000000000    5.3761071829922242
Tm Ta O
2 2 8
direct
   0.1969932824639238    0.3939865649278406    0.1226921518833889 Tm
   0.8030067175360760    0.6060134350721594    0.6226921518833887 Tm
   0.4141901708094781    0.8283823416189512    0.1899064207589636 Ta
   0.5858098291905222    0.1716176583810489    0.6899064207589632 Ta
   0.1014385961716921    0.2028781923433817    0.7540486044365714 O
   0.2972556045454320    0.5945132090908661    0.4127901521730235 O
   0.3319586789331098    0.6639163578662221    0.9101392484143481 O
   0.4774942574339717    0.9549895148679479    0.5256224223337065 O
   0.5225057425660287    0.0450104851320525    0.0256224223337062 O
   0.6680413210668901    0.3360836421337778    0.4101392484143478 O
   0.7027443954545681    0.4054867909091342    0.9127901521730233 O
   0.8985614038283081    0.7971218076566179    0.2540486044365712 O
