Yb2 Br4
1.0
   4.2483146755098957    0.0000000000000000    0.0000000000000000
   0.0000000000000000    6.4566127034844696    0.0000000000000000
   0.0000000000000000    0.0000000000000000    6.8487272635972332
Yb Br
2 4
direct
   0.0000000000000000    0.5000000000000000    0.5000000000000000 Yb
   0.5000000000000000    0.0000000000000000    0.0000000000000000 Yb
   0.5000000000000000    0.2544434881496082    0.3432643398316625 Br
   0.5000000000000000    0.7455565118503920    0.6567356601683376 Br
   0.0000000000000000    0.2455565118503919    0.8432643398316625 Br
   0.0000000000000000    0.7544434881496080    0.1567356601683376 Br
