Rb4 S4 O16
1.0
   7.5548329027270347    0.0000000000000000    0.0000000000000004
  -0.0000000000000004    6.7979938907438537    3.3036854346497120
  -0.0000000000000000    0.4588712818631226    7.7062709504924660
Rb S O
4 4 16
direct
   0.4930733917449182    0.2499890946570077    0.0000063871504015 Rb
   0.9930733917449172    0.7500109053429913   -0.0000063871504016 Rb
   0.7434239172092862    0.2499874636436327    0.5000204166641923 Rb
   0.2434239172092866    0.7500125363563674    0.4999795833358064 Rb
   0.9930521426900972    0.2500194078858257    0.0000009109047816 S
   0.4930521426900962    0.7499805921141754   -0.0000009109047815 S
   0.2434708938689234    0.2500122017364109    0.5000040314606953 S
   0.7434708938689226    0.7499877982635886    0.4999959685393046 S
   0.6295701458439623    0.9268214633944830    0.3733893971659861 O
   0.1295701458439619    0.0731785366055185    0.6266106028340139 O
   0.8573884210296471    0.6988299496294871    0.3740873407498522 O
   0.3573884210296466    0.3011700503705141    0.6259126592501481 O
   0.8573919516605129    0.8011828417980776    0.6258758830079520 O
   0.3573919516605137    0.1988171582019231    0.3741241169920472 O
   0.6069485209119346    0.9268215599625476    0.8734081715451867 O
   0.6069032462822166    0.5731068932403182    0.1266205264895365 O
   0.3791159302459665    0.8011624619911558    0.1258762899103788 O
   0.8791159302459660    0.1988375380088445    0.8741237100896218 O
   0.1296154958278947    0.4268831447718315    0.3733739160912363 O
   0.1069032462822157    0.4268931067596825    0.8733794735104639 O
   0.3791449426846463    0.6988376649559905    0.8740721019771946 O
   0.8791449426846443    0.3011623350440106    0.1259278980228047 O
   0.1069485209119344    0.0731784400374529    0.1265918284548130 O
   0.6296154958278956    0.5731168552281681    0.6266260839087632 O
