Mg2 V2 S2 F10
1.0
   5.4832537167345548    0.0717059813302033   -0.0203657462612721
  -1.0014231877010418    6.0486772593971603    0.1405371115176570
  -1.5988261318076993   -2.1247422556576989    6.7956914308718392
Mg V S F
2 2 2 10
direct
   0.3909459046698303    0.5897995515066479    0.6812637207927910 Mg
   0.6323024244452468    0.4649696645280326    0.2365750840661938 Mg
   0.5132016314443032    0.9541683771212752    0.4460092262729988 V
   0.9606147712539581    0.3708545400797199    0.9334360442625380 V
   0.9224603546166551    0.0697432939848495    0.7160888035876248 S
   0.1022740150405634    0.0066751226333193    0.3364586264789822 S
   0.2719054562182538    0.3461938040314901    0.0910484282916333 F
   0.5745709095480844    0.6407016620612360    0.4808171478002172 F
   0.9721702547611706    0.6340469417583368    0.2166338481231956 F
   0.1815915947123669    0.3174753659127347    0.4629599934182516 F
   0.6290164605113987    0.2353364920016518    0.4026906486102845 F
   0.7477578048122201    0.2295852166437830    0.0642782261947306 F
   0.3925624330786198    0.9076140995784934    0.6698019212682836 F
   0.1488693064877187    0.5890716255299328    0.8381704919153078 F
   0.5282406841334634    0.7892435561945821    0.2042997618589045 F
   0.6617429942661466    0.4875176864339171    0.8332260270580599 F
