Ca1 Pr1 Hg2
1.0
   0.0000000000000000    3.7964879334180646    3.7964879334180646
   3.7964879334180646    0.0000000000000000    3.7964879334180646
   3.7964879334180646    3.7964879334180646   -0.0000000000000000
Ca Pr Hg
1 1 2
direct
   0.2500000000000000    0.2500000000000000    0.2500000000000000 Ca
   0.7500000000000000    0.7499999999999999    0.7499999999999999 Pr
   0.0000000000000000    0.0000000000000000    0.0000000000000000 Hg
   0.4999999999999999    0.5000000000000000    0.5000000000000000 Hg
