Li8 Mn2 Co4 O14
1.0
   4.7645087862231934   -0.0231164453794388    1.1639061633445977
   1.5903079023856719    4.6878256786001806    0.4128675122585879
   0.0262756474599565   -0.0630846204748538   10.2290473565062499
Li Mn Co O
8 2 4 14
direct
   0.0712918494946604    0.4999967032945183    0.8574195148991346 Li
   0.6361819023989772    0.4999920700548254    0.7277131153818520 Li
   0.2128636560088051    0.4999949033437106    0.5743360738727549 Li
   0.7877591285135399    0.5000119342172359    0.4244956819805237 Li
   0.3586909633835705    0.5000070942129523    0.2825990875545448 Li
   0.9307433281978641    0.4999989683178022    0.1384753503008288 Li
   0.5024025244572681    0.4999879561450940    0.9951916836294968 Li
   0.5701210394060869    0.0000014301649839    0.8597742477081389 Li
   0.0022232635671259   -0.0000060516665835    0.9955725175972335 Mn
   0.7116361894836495    0.0000032056539375    0.5767070055733412 Mn
   0.8576845701020082   -0.0000014486911588    0.2846269001849673 Co
   0.4292597131050078    0.9999952090072244    0.1414817596006370 Co
   0.1420558562698730    0.0000015399844388    0.7158683328964450 Co
   0.2858956217040490    0.0000062510132768    0.4281875641301604 Co
   0.2431522992720876    0.2269696245625657    0.0084451359617307 O
   0.7484429360776843    0.7730009175151161    0.0084257314177922 O
   0.2938943632309673    0.7689197410282596    0.8582282757940931 O
   0.8942662292214822    0.7716501813620807    0.7043652267302436 O
   0.4563543276371849    0.7795769239476043    0.5711058942482869 O
   0.0252250664410849    0.7787705657546629    0.4268830958742333 O
   0.5957719556533899    0.7838786864618088    0.2869073043729083 O
   0.1708265001451962    0.7792558575648784    0.1427611841233153 O
   0.4013197548746116    0.2283770013715152    0.7043907999793764 O
   0.9724973245037163    0.2204324584934383    0.5711402914420349 O
   0.5478683136577615    0.2212347400412435    0.4269114336116542 O
   0.1173046933090882    0.2161258029934253    0.2869324645095582 O
   0.6864023300669032    0.2207398411398763    0.1427931018571764 O
   0.8478612998163454    0.2310788927112844    0.8582622247675350 O
