Ba3 Ti3 Fe3 Bi2 O18
1.0
   5.5583592226763789    0.0000000005617477    0.0000000000000003
  -2.7791796436173843    4.8136802715608713    0.0000000000000003
   0.0000000000000000    0.0000000000000002   13.8230528426538282
Ba Ti Fe Bi O
3 3 3 2 18
direct
   0.0000000000000000    0.0000000000000000    0.9953112703995647 Ba
   0.6666666666666643    0.3333333333333357    0.1657963674120445 Ba
   0.0000000000000000    0.0000000000000000    0.4991035195931368 Ba
   0.6666666666666643    0.3333333333333357    0.8968631369040327 Ti
   0.3333333333333357    0.6666666666666643    0.0610591589332468 Ti
   0.0000000000000000    0.0000000000000000    0.7554344847659368 Ti
   0.0000000000000000    0.0000000000000000    0.2594373130103307 Fe
   0.6666666666666643    0.3333333333333357    0.4147980039166662 Fe
   0.3333333333333357    0.6666666666666643    0.5941309992415854 Fe
   0.6666666666666643    0.3333333333333357    0.6397586004427708 Bi
   0.3333333333333357    0.6666666666666643    0.3010990337835711 Bi
   0.8350107444111809    0.6700224888226038    0.3362290535092404 O
   0.1694285974236144    0.3388581948474531    0.6628727086454741 O
   0.5047845039481559    0.0095700078960628    0.5132072578576571 O
   0.8346178551495697    0.6692367102992232    0.8303309352581469 O
   0.9947484441911294    0.4973737220955410    0.0032024915655691 O
   0.3307632897007763    0.1653821448504304    0.8303309352581469 O
   0.6619719669795854    0.8309859834896802    0.1821165903629503 O
  -0.0095700078960628    0.4952154960518447    0.5132072578576571 O
   0.8350107444114194    0.1649892555885809    0.3362290535092404 O
   0.6611418051525468    0.8305714025763856    0.6628727086454741 O
   0.1690140165100942    0.8309859834899062    0.1821165903629503 O
   0.5026262779044094    0.4973737220955912    0.0032024915655691 O
   0.5026262779044589    0.0052515558088706    0.0032024915655691 O
   0.1694285974238340    0.8305714025761662    0.6628727086454741 O
   0.5047845039479097    0.4952154960520903    0.5132072578576571 O
   0.8346178551496490    0.1653821448503508    0.8303309352581469 O
   0.3299775111773957    0.1649892555888194    0.3362290535092404 O
   0.1690140165103205    0.3380280330204143    0.1821165903629503 O
