Ca2 Bi4 O8
1.0
   3.4004261177731148    0.0000000012284564    0.0000000000000000
  -1.7002125575652967    5.7309987145354695    0.0000000000000000
  -0.0000000000000000   -0.0000000000000000   11.3511537776927032
Ca Bi O
2 4 8
direct
   0.3842387467673661    0.7684784935352165    0.7499999999999999 Ca
   0.6157612532326338    0.2315215064647838    0.2500000000000000 Ca
   0.8680056928088433    0.7360133856176376    0.0775575406676864 Bi
   0.1319943071911565    0.2639866143823624    0.9224424593323139 Bi
   0.8680056928088433    0.7360133856176376    0.4224424593323136 Bi
   0.1319943071911565    0.2639866143823624    0.5775575406676861 Bi
   0.2244877281287115    0.4489774562577297    0.3783365090885744 O
   0.7755122718712886    0.5510225437422703    0.6216634909114254 O
   0.7755122718712886    0.5510225437422703    0.8783365090885745 O
   0.2244877281287115    0.4489774562577297    0.1216634909114257 O
   0.9749807408013821    0.9499634816019576    0.2500000000000000 O
   0.0250192591986180    0.0500365183980422    0.7499999999999999 O
   0.4999999999999999    0.0000000000000000    0.0000000000000000 O
   0.4999999999999999    0.0000000000000000    0.5000000000000000 O
