Ca1 Y1 Ag2
1.0
 -10.0596983164842069    0.0000002995663582   -5.8079685265912850
  -6.6527873072928685    0.3153170673316075   -0.0929735804104450
  -5.7194714381560585    2.9551361181979612   -1.7095249181288168
Ca Y Ag
1 1 2
direct
   0.0000000000000000    0.0000000000000000    0.0000000000000000 Ca
   0.5000000000000000    0.0000000000000000    0.0000000000000000 Y
   0.7490576683833923    0.0000000004099005    0.0000000002414243 Ag
   0.2509423316166078   -0.0000000004099004   -0.0000000002414243 Ag
