Be1 Hg2 Ir1
1.0
  -1.9808370000000000    1.9808370000000000    4.2469970000000004
   1.9808370000000000   -1.9808370000000000    4.2469970000000004
   1.9808370000000000    1.9808370000000000   -4.2469970000000004
Be Hg Ir
1 2 1
direct
   0.7500000000000001    0.2500000000000000    0.5000000000000001 Be
   0.0000000000000000    0.0000000000000000    0.0000000000000000 Hg
   0.2500000000000001    0.7499999999999999    0.5000000000000001 Hg
   0.5000000000000000    0.5000000000000000    0.0000000000000000 Ir
