Na1 Co3 O6
1.0
   4.8325411875562168   -0.0251707681652155   -0.6819648673800816
  -2.2524591259618498    4.1112346863134395    1.3648858334240075
  -0.0050354021316106    0.0076711790727087    5.7307933038467036
Na Co O
1 3 6
direct
   0.3333452938251126    0.1666665723647318    0.5000015392607808 Na
   0.6698270453768771    0.3349147655264322   -0.0000014233193331 Co
   0.3333327726351760    0.6666665955506577    0.0000005704295778 Co
  -0.0031730067628528   -0.0015860942695849    0.0000005166036603 Co
   0.3333392377759368    0.9449558134963598    0.1729841301809674 O
   0.0021734302413799    0.2753983714446929    0.1756327337362342 O
   0.6645010101666078    0.6065664577671689    0.1756415357621139 O
   0.6644925434931972    0.0579308333582501    0.8243583929470523 O
   0.3333309634333281    0.3883814294209911    0.8270150325090424 O
   0.0021657098152353    0.7267722553403037    0.8243669718899117 O
