Tl1 Ni1 O3
1.0
   3.7979688284872890   -0.0198744416167540   -0.0183672586699898
   0.0197812056128474    3.8248287422056073   -0.1224846934426720
   0.0207296444974347    0.4143114190593726    3.7932432966422263
Tl Ni O
1 1 3
direct
   0.0099752991469089    0.9744908122922052   -0.0090975513524805 Tl
   0.5100166712576620    0.4994878261763417    0.5002043334614900 Ni
   0.0100166340716277    0.4742337276925118    0.5636055920606012 O
   0.5100042352049287    0.0141532706275075    0.4226294580568670 O
   0.5099811603188789    0.5776313632114409    0.9926571677735161 O
