K4 Zr2 Si6 O18
1.0
   3.4733302236415931   -6.0159844786437544   -0.0000000000000000
   3.4733302271336961    6.0159844766275885   -0.0000000000000000
  -0.0000000000000000   -0.0000000000000000   10.3308313894795223
K Zr Si O
4 2 6 18
direct
   0.3333330000000032    0.6666669999999968    0.0541691342919041 K
   0.6666669999999968    0.3333330000000032    0.5541691342919041 K
   0.3333330000000032    0.6666669999999968    0.4458308657080960 K
   0.6666669999999968    0.3333330000000032    0.9458308657080959 K
   0.0000000000000000    0.0000000000000000    0.0000000000000000 Zr
   0.0000000000000000    0.0000000000000000    0.5000000000000000 Zr
   0.7365242226503028    0.1211154696108543    0.2500000000000000 Si
   0.6154077530394438    0.7365242226503027    0.7500000000000000 Si
   0.1211154696108543    0.3845922469605563    0.7500000000000000 Si
   0.3845922469605562    0.2634757773496973    0.2500000000000000 Si
   0.2634757773496973    0.8788845303891458    0.7500000000000000 Si
   0.8788845303891459    0.6154077530394439    0.2500000000000000 Si
   0.0120899264493671    0.2536508681543103    0.6163390772076239 O
   0.6064693289295094    0.5185358271957742    0.2500000000000000 O
   0.3935306710704903    0.4814641728042260    0.7500000000000000 O
   0.5185358271957742    0.9120664982662642    0.7500000000000000 O
   0.9120664982662643    0.3935306710704902    0.2500000000000000 O
   0.7584390582950570    0.0120899264493672    0.1163390772076237 O
   0.7463491318456897    0.7584390582950570    0.6163390772076239 O
   0.9879100735506327    0.7463491318456897    0.1163390772076237 O
   0.0120899264493671    0.2536508681543103    0.8836609227923760 O
   0.2415609417049432    0.9879100735506327    0.6163390772076239 O
   0.2415609417049432    0.9879100735506327    0.8836609227923760 O
   0.2536508681543103    0.2415609417049432    0.3836609227923765 O
   0.9879100735506327    0.7463491318456897    0.3836609227923765 O
   0.4814641728042260    0.0879335017337357    0.2500000000000000 O
   0.7463491318456897    0.7584390582950570    0.8836609227923760 O
   0.7584390582950570    0.0120899264493672    0.3836609227923765 O
   0.2536508681543103    0.2415609417049432    0.1163390772076237 O
   0.0879335017337356    0.6064693289295094    0.7500000000000000 O
