K2 Hg1 As1 Cl6
1.0
   6.4638688092471117   -0.0000000063193293    3.7319168379028915
   2.1546232600171575    6.0941941448935770    3.7319168379028906
  -0.0000000065422508   -0.0000000046260699    7.4638326984591705
K Hg As Cl
2 1 1 6
direct
   0.7500000000000000    0.7499999999999999    0.7499999999999999 K
   0.2500000000000000    0.2500000000000000    0.2499999999999999 K
   0.4999999999999999    0.5000000000000000    0.4999999999999999 Hg
   0.0000000000000000    0.0000000000000000    0.0000000000000000 As
   0.7628637963181351    0.2371362036822069    0.2371362036818332 Cl
   0.2371362036820583    0.2371362036822898    0.7628637963180521 Cl
   0.2371362036818648    0.7628637963177930    0.7628637963181667 Cl
   0.2371362036820913    0.7628637963180191    0.2371362036819490 Cl
   0.7628637963179090    0.2371362036819805    0.7628637963180509 Cl
   0.7628637963179418    0.7628637963177102    0.2371362036819477 Cl
