Fe1 P2 O7
1.0
   5.0219748971907139   -0.0154197171764669   -0.7260310627905948
   1.0294118476841829    4.9153614792740594    0.7260310860716508
   0.0076186791927272   -0.0094097057558904    4.4878975038099549
Fe P O
1 2 7
direct
   0.1122429766876814    0.1122429766878294   -0.0000000000002925 Fe
   0.2634696247682518    0.6675248054319523    0.5926705679137553 P
   0.6675248054353883    0.2634696247711126    0.4073294320855064 P
   0.5503679049119895    0.5503689049111163    0.5000010000008590 O
   0.1453557509278678    0.4313514397377388    0.7282284525719739 O
   0.0730230907984192    0.8114670118012185    0.2942729830304284 O
   0.3376903191491936    0.8542450757800587    0.8188310019952080 O
   0.8114670117962912    0.0730210907930661    0.7057270169669828 O
   0.8542450757911553    0.3376903191538365    0.1811689979996080 O
   0.4313494397337596    0.1453557509320667    0.2717705474359705 O
