Na2 Ti2 Si4 O12
1.0
   5.2689480441887202   -0.0159882831616651   -0.0238933514932909
   1.3576683076033254    6.4515813475067656    0.0846183845558007
   1.3676886614965684    0.4149775978834709    6.4362191639270403
Na Ti Si O
2 2 4 12
direct
   0.7499903836776732    0.8076990544769999    0.6922601208288643 Na
   0.2500096163223274    0.1923009455229998    0.3077398791711355 Na
   0.2499957646479115    0.5877551743008049    0.9122433464162377 Ti
   0.7500042353520882    0.4122448256992016    0.0877566535837626 Ti
   0.7405995140979865    0.3010091769364371    0.6131568392915484 Si
   0.2594004859020146    0.6989908230635626    0.3868431607084515 Si
   0.2406016573581294    0.1131472438579771    0.8010444426731145 Si
   0.7593983426418706    0.8868527561420231    0.1989555573268854 Si
   0.6496756394946617    0.4678337032049740    0.7922492288463802 O
   0.3503243605053377    0.5321662967950261    0.2077507711536197 O
   0.5069644718202939    0.1618826405784550    0.6331855259185871 O
   0.4930355281797059    0.8381173594215454    0.3668144740814132 O
   0.0069828889334859    0.1331732677798003    0.6618870486113752 O
   0.8151907761504216    0.3945009054686516    0.3765142824105681 O
   0.1496670933062313    0.2922484043783596    0.9678613308891807 O
   0.8503329066937686    0.7077515956216405    0.0321386691108189 O
   0.3151948195573378    0.8765168115091002    0.8945455672240242 O
   0.6848051804426618    0.1234831884908998    0.1054544327759759 O
   0.1848092238495782    0.6054990945313479    0.6234857175894393 O
   0.9930171110665141    0.8668267322201993    0.3381129513886255 O
