Y4 As4 Pt4
1.0
   2.1529030529073911   -3.7289370140194018    0.0000000000000000
   2.1529030529073911    3.7289370140194018    0.0000000000000000
  -0.0000000000000000   -0.0000000000000000   15.2635087772008298
Y As Pt
4 4 4
direct
   0.0000000000000000    0.0000000000000000    0.0000000000000000 Y
   0.0000000000000000    0.0000000000000000    0.5000000000000000 Y
   0.0000000000000000    0.0000000000000000    0.2500000000000000 Y
   0.0000000000000000    0.0000000000000000    0.7500000000000000 Y
   0.3333330000000032    0.6666669999999968    0.8843941102271663 As
   0.6666669999999968    0.3333330000000032    0.3843941102271660 As
   0.6666669999999968    0.3333330000000032    0.1156058897728338 As
   0.3333330000000032    0.6666669999999968    0.6156058897728336 As
   0.3333330000000032    0.6666669999999968    0.3636915541197458 Pt
   0.6666669999999968    0.3333330000000032    0.8636915541197461 Pt
   0.6666669999999968    0.3333330000000032    0.6363084458802538 Pt
   0.3333330000000032    0.6666669999999968    0.1363084458802541 Pt
