Nb1 V1 O4
1.0
   3.6570320035812567   -0.0159024076807125   -4.2358098227881431
  -0.5179424528010906    3.6202630177715625   -4.2356706924477994
   0.0138581219053018    0.0159912745909522    5.5959208559348586
Nb V O
1 1 4
direct
   0.0000056530028777   -0.0000375741453236    0.0000257869406197 Nb
   0.7499335071678931    0.2499977537039116    0.4999876513039583 V
   0.5412732954538655    0.0412325462989470    0.4999842096823672 O
   0.2101000392259708    0.2101162443269429   -0.0000019211594164 O
   0.9587727190560459    0.4587652968492020    0.4999944529814374 O
   0.7899147860933468    0.7899267329663175    0.0000098202510340 O
