Na2 Be1 Fe1
1.0
   3.0045469433320195    0.0000000000000000   -0.0000000000000000
   0.0000000000000000    3.0045469433320195    0.0000000000000000
   0.0000000000000000   -0.0000000000000000    8.4223186352670876
Na Be Fe
2 1 1
direct
   0.0000000000000000    0.0000000000000000    0.9328672081673890 Na
   0.5000000000000000    0.5000000000000000    0.3161381301711951 Na
   0.0000000000000000    0.0000000000000000    0.5964672021316293 Be
   0.5000000000000000    0.5000000000000000    0.6545274595297936 Fe
