Dy8 Br1
1.0
   1.7804912157892927   -3.0838945815480900    0.0000000000000000
   1.7804912157892931    3.0838945815480900   -0.0000000000000000
  -0.0000000000000000   -0.0000000000000002   24.2846121523945762
Dy Br
8 1
direct
   0.0000000000000000    0.0000000000000000    0.2094268236577137 Dy
   0.6666666666666643    0.3333333333333357    0.0963945950060218 Dy
   0.6666666666666643    0.3333333333333357    0.3267934947143632 Dy
   0.6666666666666643    0.3333333333333357    0.5577252150245261 Dy
   0.3333333333333358    0.6666666666666642    0.4422747849754742 Dy
   0.3333333333333358    0.6666666666666642    0.6732065052856369 Dy
   0.3333333333333358    0.6666666666666642    0.9036054049939782 Dy
   0.0000000000000000    0.0000000000000000    0.7905731763422860 Dy
   0.0000000000000000    0.0000000000000000    0.0000000000000000 Br
