As4 Cl12 O4
1.0
   0.0000000000000000    8.1002199835323019   -0.0047249251026574
   6.0961928687618858    0.0000000000000000    0.0000000000000000
   0.0000000000000000   -3.8555455731231962   -9.4480184812655139
As Cl O
4 12 4
direct
   0.6617492478473030    0.5607233634776954    0.9874161310622164 As
   0.3382507521526971    0.0607233634776949    0.5125838689377836 As
   0.3382507521526971    0.4392766365223049    0.0125838689377837 As
   0.6617492478473030    0.9392766365223046    0.4874161310622163 As
   0.7971962595197392    0.8795851014804430    0.9875022066909916 Cl
   0.2028037404802607    0.3795851014804432    0.5124977933090084 Cl
   0.2028037404802607    0.1204148985195566    0.0124977933090079 Cl
   0.7971962595197390    0.6204148985195570    0.4875022066909921 Cl
   0.8858883383954291    0.4285774050052759    0.1634527408589966 Cl
   0.1141116616045710    0.9285774050052753    0.3365472591410036 Cl
   0.1141116616045710    0.5714225949947248    0.8365472591410037 Cl
   0.8858883383954292    0.0714225949947244    0.6634527408589963 Cl
   0.6557081817259471    0.4572661878223450    0.7833263149944043 Cl
   0.3442918182740532    0.9572661878223451    0.7166736850055956 Cl
   0.3442918182740532    0.5427338121776549    0.2166736850055955 Cl
   0.6557081817259471    0.0427338121776550    0.2833263149944044 Cl
   0.4781986669348309    0.6949066702379639    0.0056321355403834 O
   0.5218013330651692    0.1949066702379637    0.4943678644596165 O
   0.5218013330651691    0.3050933297620362    0.9943678644596167 O
   0.4781986669348309    0.8050933297620361    0.5056321355403832 O
