Be2 Nb1 Ni1
1.0
  -2.0215839666427136    2.0215839666427136    2.8618199960743440
   2.0215839666427136   -2.0215839666427136    2.8618199960743440
   2.0215839666427136    2.0215839666427136   -2.8618199960743440
Be Nb Ni
2 1 1
direct
   0.0000000000000000    0.0000000000000000    0.0000000000000000 Be
   0.2500000000000000    0.7500000000000000    0.5000000000000000 Be
   0.5000000000000000    0.5000000000000000    0.0000000000000000 Nb
   0.7500000000000000    0.2500000000000000    0.5000000000000000 Ni
