Hf1 Fe2 As1
1.0
   0.0000000000000000    3.0974744046280045    3.0974744046280045
   3.0974744046280045   -0.0000000000000000    3.0974744046280045
   3.0974744046280045    3.0974744046280045   -0.0000000000000000
Hf Fe As
1 2 1
direct
   0.7500000000000000    0.7500000000000000    0.7500000000000000 Hf
   0.0000000000000000    0.0000000000000000    0.0000000000000000 Fe
   0.2500000000000000    0.2500000000000000    0.2500000000000000 Fe
   0.4999999999999999    0.5000000000000000    0.5000000000000000 As
