Li2 Cr2 P4 O14
1.0
   5.7820919043232104    0.0409050531021433    2.4604882668789405
   0.7301631535789602    6.1987650940071104    0.5594445053181417
   0.0191247969597051    0.0643670869879995    6.7009568679345826
Li Cr P O
2 2 4 14
direct
   0.7079223718921178    0.0142580159652782    0.8225965342334147 Li
   0.2920776281078828    0.9857419840347226    0.1774034657665853 Li
   0.0906359762113932    0.6434116573344860    0.7831247600644420 Cr
   0.9093640237886060    0.3565883426655147    0.2168752399355583 Cr
   0.3500243227092750    0.3998481497124978    0.3450323918877757 P
   0.6499756772907248    0.6001518502875023    0.6549676081122248 P
   0.2170142304710403    0.1286694101469860    0.7645154282512642 P
   0.7829857695289594    0.8713305898530137    0.2354845717487355 P
   0.9523390258317579    0.6689529244101594    0.1189156480616844 O
   0.3972003007238616    0.5811693552875717    0.8009852859469254 O
   0.6027996992761382    0.4188306447124284    0.1990147140530747 O
   0.7801640364831091    0.3946566972696058    0.5330971874815384 O
   0.6344706220263882    0.7868146153441382    0.4747870962902833 O
   0.0476609741682417    0.3310470755898410    0.8810843519383150 O
   0.3855885859004650    0.0378836403148798    0.8659690006166328 O
   0.3655293779736112    0.2131853846558618    0.5252129037097168 O
   0.9348191783954363    0.0343863721783496    0.2547705472912580 O
   0.7770337019707289    0.6876330785501616    0.7764236479733909 O
   0.6144114140995350    0.9621163596851205    0.1340309993833677 O
   0.2198359635168902    0.6053433027303943    0.4669028125184616 O
   0.2229662980292715    0.3123669214498386    0.2235763520266087 O
   0.0651808216045630    0.9656136278216504    0.7452294527087420 O
