Rb8
1.0
  11.7436702476452268   -0.1073813293012428    3.5919593928161029
   9.2351345572937529    7.2551782434333729    3.5919593928161029
   0.2203957913239134    0.0750921881279861    7.8018622159122923
Rb
8
direct
   0.1875560204026117    0.6874514918072351    0.5625380535907600 Rb
   0.3125485081927649    0.8124439795973886    0.9374619464092400 Rb
   0.5623460728485705    0.0626280074607316    0.6874246453028400 Rb
   0.8124439795973886    0.3125485081927649    0.4374619464092402 Rb
   0.4376539271514295    0.9373719925392684    0.3125753546971596 Rb
   0.9373719925392684    0.4376539271514294    0.8125753546971601 Rb
   0.6874514918072351    0.1875560204026117    0.0625380535907599 Rb
   0.0626280074607316    0.5623460728485705    0.1874246453028403 Rb
