Ba4 Ta1 Ge1
1.0
   0.0000000000000000    4.8775872073412314    4.8775872073412314
   4.8775872073412314   -0.0000000000000000    4.8775872073412314
   4.8775872073412314    4.8775872073412314   -0.0000000000000000
Ba Ta Ge
4 1 1
direct
   0.1259896702114865    0.6246701099295069    0.6246701099295069 Ba
   0.6246701099295070    0.6246701099295069    0.6246701099295069 Ba
   0.6246701099295069    0.1259896702114865    0.6246701099295069 Ba
   0.6246701099295069    0.6246701099295069    0.1259896702114865 Ba
   0.0000000000000000    0.0000000000000000    0.0000000000000000 Ta
   0.2500000000000000    0.2500000000000000    0.2500000000000000 Ge
