Pd1 C1 N2
1.0
   3.4809179540861397   -0.2723116607425565   -0.8154739093755166
   2.3036490460442098    0.9084939623701782    4.4940045879455202
   1.0720184984967340    0.4227737381421650   15.1129614710214852
Pd C N
1 1 2
direct
   0.0000000000193039   -0.0000140919772571   -0.0000012423001158 Pd
  -0.0000000000126175   -0.0000056059085783    0.4999914456428981 C
   0.0000000000028865    0.6542393814971265    0.5415368220651022 N
  -0.0000000000095730    0.3456803163887121    0.4584729745921082 N
