Mg3 Sn1
1.0
   6.3548136541502807   -0.2152955740231851    0.0000000000000000
  -1.6819289625604030    2.9131869220533244    0.0000000000000000
   0.0000000000000000    0.0000000000000000    5.1441806733424524
Mg Sn
3 1
direct
   0.6715800200239095    0.6715800200218982    0.2500000000000000 Mg
   0.3333203772803178    0.3333203772793554    0.7500000000000000 Mg
   0.8279525026136860    0.3279525026161831    0.7500000000000000 Mg
   0.1671481000820843    0.6671481000825610    0.2500000000000000 Sn
