Li4 Mn2 Fe2 B4 O12
1.0
   5.1842082550465429    0.0029688462816302   -0.0376181970842605
  -2.5824970152757540    4.4817989940706653   -0.0063773869869442
   0.1000328030557206    0.2190550457449214   10.1038957270549350
Li Mn Fe B O
4 2 2 4 12
direct
   0.6860028591270608    0.6648495226262161    0.6625666500483240 Li
   0.6313270494807003    0.6504921361009455    0.1678916368117850 Li
   0.3744123195810599    0.3603618292014382    0.4160898306466008 Li
   0.3221850620813596    0.3320463518157797    0.9195108133974478 Li
   0.6504522262541096   -0.0086709836955534    0.8842533516156059 Mn
   0.0139227639842340    0.3418205750143220    0.6324624882679800 Mn
   0.2958740274771129   -0.0322218213902966    0.1472152512447049 Fe
   0.0404221291540628    0.7016323120120055    0.3655836216188088 Fe
   0.3477827476087861    0.0109026297090994    0.6219064347833293 B
  -0.0108782078621755    0.6583572996602206    0.8804330841568648 B
   0.9721826520205419    0.3086680512226608    0.1287396419304925 B
   0.7010792868012026    0.0289362743093024    0.3747648261259063 B
   0.2324575111969026    0.9233922452808512    0.9207916675744433 O
   0.9648018737197449    0.2834463692337467    0.4069177280264289 O
   0.7130701369634482    0.0413161816033138    0.1023080103861903 O
   0.9466560548646719    0.5581093823086485    0.1573606207235844 O
   0.4484371122595494    0.0556175368400793    0.3518825180904606 O
   0.7143518350301490    0.6351590264837748    0.8637803248987539 O
   0.6823793198386607    0.7547632175671718    0.3614850783602528 O
   0.3764745328798321    0.2904859629914395    0.6108956178022610 O
   0.2475344949308120    0.3281029221616977    0.1233044163763845 O
   0.5882388636940841    0.9796919340059811    0.6615920719583003 O
   0.0241421319651483    0.4134016337567166    0.8511237684883736 O
   0.0772902169489268    0.7599384111804545    0.5909425466666980 O
