Al1 Ge1 Ru2
1.0
   0.0000000000000000    3.0158633077496830    3.0158633077496830
   3.0158633077496830   -0.0000000000000000    3.0158633077496830
   3.0158633077496830    3.0158633077496830    0.0000000000000000
Al Ge Ru
1 1 2
direct
   0.2500009999999975    0.2500009999999975    0.2500009999999974 Al
   0.7500009999999976    0.7500009999999976    0.7500009999999974 Ge
   0.0000000000000000    0.0000000000000000    0.0000000000000000 Ru
   0.5000000000000000    0.5000000000000000    0.4999999999999998 Ru
