Mg1 Be1 Tc2
1.0
  -2.1243909883226744    2.1243909883226744    3.0042241543653003
   2.1243909883226744   -2.1243909883226744    3.0042241543653003
   2.1243909883226744    2.1243909883226744   -3.0042241543653003
Mg Be Tc
1 1 2
direct
   0.7500000000000000    0.2500000000000000    0.5000000000000000 Mg
   0.5000000000000000    0.5000000000000000    0.0000000000000000 Be
   0.0000000000000000    0.0000000000000000    0.0000000000000000 Tc
   0.2500000000000000    0.7500000000000000    0.5000000000000000 Tc
