Be1 Mo1 Os2
1.0
   2.7678200186800561    0.0000000000000000    0.0000000000000000
   0.0000000000000000    2.7678200186800561   -0.0000000000000000
   0.0000000000000000    0.0000000000000000    6.9166118605683673
Be Mo Os
1 1 2
direct
   0.0000000000000000    0.0000000000000000    0.4820856369920022 Be
   0.5000000000000000    0.5000000000000000    0.7191724552917724 Mo
   0.0000000000000000    0.0000000000000000    0.0168664276461113 Os
   0.5000000000000000    0.5000000000000000    0.2818754800701070 Os
