Nb8 Pt1 Se20
1.0
   9.9812857699872417   -0.0260624002283229    2.8667866551870440
   9.3857862864305428    3.3961390808251313    2.8667866551870458
   0.1708178691704553    0.0297241274181052   19.5854599578432946
Nb Pt Se
8 1 20
direct
   0.0777201716148437    0.0777201716148436    0.0915865890483524 Nb
   0.9222798283851568    0.9222798283851564    0.9084134109516470 Nb
   0.3299654188770035    0.3299654188770033    0.8112512222211318 Nb
   0.6700345811229973    0.6700345811229965    0.1887487777788684 Nb
   0.2698828433854061    0.2698828433854061    0.2795247435818791 Nb
   0.7301171566145943    0.7301171566145941    0.7204752564181209 Nb
   0.1503357138960901    0.1503357138960901    0.5565285258060091 Nb
   0.8496642861039109    0.8496642861039100    0.4434714741939914 Nb
   0.5000000000000004    0.5000000000000000   -0.0000000000000000 Pt
   0.7930676220882211    0.7930676220882203    0.9148670197011560 Se
   0.2069323779117796    0.2069323779117796    0.0851329802988440 Se
   0.5225723605310992    0.5225723605310987    0.8679637153363295 Se
   0.4774276394689012    0.4774276394689009    0.1320362846636705 Se
   0.6687909777875709    0.6687909777875704    0.3241022016305179 Se
   0.3312090222124298    0.3312090222124295    0.6758977983694822 Se
   0.7444824021240056    0.7444824021240053    0.5724403223865792 Se
   0.2555175978759949    0.2555175978759947    0.4275596776134210 Se
   0.8016550335217820    0.8016550335217815    0.1739338512051692 Se
   0.8617001624766392    0.8617001624766386    0.3007568513197898 Se
   0.6230183180610855    0.6230183180610851    0.9878839233930560 Se
   0.3769816819389156    0.3769816819389156    0.0121160766069439 Se
   0.0694520485301743    0.0694520485301743    0.2290677149960187 Se
   0.1382998375233614    0.1382998375233614    0.6992431486802101 Se
   0.5959558826006413    0.5959558826006409    0.4831960002464519 Se
   0.4040441173993600    0.4040441173993596    0.5168039997535481 Se
   0.5493155168971140    0.5493155168971138    0.6114461654202752 Se
   0.4506844831028869    0.4506844831028866    0.3885538345797251 Se
   0.1983449664782191    0.1983449664782190    0.8260661487948310 Se
   0.9305479514698262    0.9305479514698256    0.7709322850039819 Se
