K1 Mn1 Ag2 S4
1.0
   4.0796973722286820   -4.6917296897901402    0.0000000000000000
   4.0796973722286820    4.6917296897901402    0.0000000000000000
  -4.0796973722286820    0.0000000000000000    4.6917089494682278
K Mn Ag S
1 1 2 4
direct
   0.4999756047422201    0.4999756047422201    0.0000000000000000 K
  -0.0000223900187325   -0.0000223900187325    0.0000000000000000 Mn
   0.7499683826891660    0.2499683826891660    0.5000000000000000 Ag
   0.2499683826891660    0.7499683826891660    0.5000000000000000 Ag
   0.6653700250235309    0.0375684561278444    0.0000000000000000 S
   0.0375684561278444    0.6653700250235309    0.0000000000000000 S
   0.3345853512467097    0.3345853512467097    0.3721991637466209 S
   0.9623861875000957    0.9623861875000957    0.6278008362533789 S
