Ti1 Be2 Cd1
1.0
   2.8466406654018703    0.0000000000000000    0.0000000000000000
   0.0000000000000000    2.8466406654018703    0.0000000000000000
   0.0000000000000000    0.0000000000000000    6.7628107097446017
Ti Be Cd
1 2 1
direct
   0.5000000000000000    0.5000000000000000    0.5000000000000000 Ti
   0.0000000000000000    0.0000000000000000    0.7442575529588794 Be
   0.0000000000000000    0.0000000000000000    0.2557424470411207 Be
   0.5000000000000000    0.5000000000000000    0.0000000000000000 Cd
