Ta2 Tc1 Os1
1.0
   3.9013390293737995   -0.0000000000000000    2.2524391388089571
   1.3004463431245998    3.6782177111706091    2.2524391388089571
  -0.0000000000000000   -0.0000000000000000    4.5048782776179133
Ta Tc Os
2 1 1
direct
   0.2500000000000001    0.2500000000000000    0.2500000000000000 Ta
   0.7500000000000000    0.7500000000000000    0.7500000000000000 Ta
   0.0000000000000000    0.0000000000000000    0.0000000000000000 Tc
   0.5000000000000001    0.5000000000000000    0.5000000000000000 Os
