Ba2 Pr2 O6
1.0
   5.5592658678777056   -0.0454324583270549    3.1199768632511975
   1.8057144077150746    5.2580319959439654    3.1199768615668395
  -0.0641922205359166   -0.0454324588635041    6.3746038099698943
Ba Pr O
2 2 6
direct
   0.2499999999999999    0.2500000000000001    0.2500000000000001 Ba
   0.7500000000000000    0.7500000000000000    0.7500000000000000 Ba
   0.0000000000000000    0.0000000000000000    0.0000000000000000 Pr
   0.4999999999999998    0.5000000000000001    0.5000000000000001 Pr
   0.2499999999999689    0.6616290296184296    0.8383709703816009 O
   0.6616290296184261    0.8383709703815803    0.2500000000000409 O
   0.8383709703816048    0.2499999999999903    0.6616290296183582 O
   0.7500000000000309    0.3383709703815704    0.1616290296183991 O
   0.1616290296183950    0.7500000000000101    0.3383709703816420 O
   0.3383709703815739    0.1616290296184198    0.7499999999999590 O
