Mg3 Sb1
1.0
   6.1542537518019431   -1.6171319561527788   -0.0000000000000005
  -2.2388020330885809    3.8777189481252279    0.0000000000000001
   0.0000000000000000    0.0000000000000000    4.5179340391343104
Mg Sb
3 1
direct
   0.7499498128473511    0.7499498129215015    0.2500000000000000 Mg
   0.2498992464151257    0.2498992463251046    0.7500000000000000 Mg
   0.7500216167231299    0.2500216166772711    0.7500000000000000 Mg
   0.2501293240143869    0.7501293240761161    0.2500000000000000 Sb
