Te8 Mo6 S4
1.0
   1.8926303204865753    2.8772207667623215   -0.0000000034900767
   0.0000050137071175   -0.0000009974339937  -14.0381322431085671
  -6.4900825277904381    6.3304795522123731    0.0000030348797689
Te Mo S
8 6 4
direct
   0.2106687726396905    0.6187169084051665    0.5786521619987626 Te
   0.7804480754508436    0.1196839202681403    0.4390799272557256 Te
   0.8862186974325712    0.6196827721008948    0.2275865828807837 Te
   0.8862176974332692    0.8803172278981355    0.2275875828799415 Te
   0.7804480754515074    0.3803160797327076    0.4390799272549188 Te
   0.4560000930505461    0.1187173909266534    0.0880122174603447 Te
   0.4560000930512619    0.3812826090721509    0.0880122174595071 Te
   0.2106687726403938    0.8812830915965598    0.5786531619979312 Te
   0.4458792906193284    0.7499999999990185    0.1082689720415642 Mo
   0.2207871751948026    0.2500000000009763    0.5583967016399394 Mo
   0.0978511972034390    0.7500000000002033    0.8042899300501861 Mo
   0.8964845424698383    0.2499999999996358    0.2070261479452531 Mo
   0.7701839549808367    0.7500000000004863    0.4596398052744619 Mo
   0.5688157022456811    0.2499999999997617    0.8623752457064674 Mo
   0.1165447437694211    0.1408486337473952    0.7669182868733301 S
   0.5501186862985392    0.8591519478880695    0.8997519222037932 S
   0.5501196862974469    0.6408480521110683    0.8997519222048947 S
   0.1165447437705677    0.3591513662529766    0.7669182868721931 S
