Fe6 O10 F2
1.0
   4.9505381230939305   -0.0412034464989624    1.7056467397696009
   1.1979297691846669    4.8035913336076916    1.7056467397696005
  -0.0373339068628073   -0.0289175366834335    6.9551532290817448
Fe O F
6 10 2
direct
   0.6712844116445391    0.6712844116445390    0.8432600642357321 Fe
   0.3531920351602050    0.3531920351602051    0.6646880215469335 Fe
   0.6468079648397946    0.6468079648397947    0.3353119784530668 Fe
   0.3287155883554609    0.3287155883554610    0.1567399357642677 Fe
   0.0000000000000000    0.0000000000000000    0.5000000000000000 Fe
   0.0000000000000000    0.0000000000000000    0.0000000000000000 Fe
   0.3044348124684116    0.6955651875315879    0.0000000000000000 O
   0.6955651875315879    0.3044348124684118    0.0000000000000000 O
   0.0359413300801353    0.6427717076743058    0.6701863356662598 O
   0.3572282923256940    0.9640586699198648    0.3298136643337398 O
   0.4279159368434945    0.4279159368434946    0.3666204363171167 O
   0.2337507401106586    0.2337507401106587    0.9563653540070127 O
   0.5720840631565050    0.5720840631565053    0.6333795636828833 O
   0.9640586699198647    0.3572282923256941    0.3298136643337398 O
   0.6427717076743057    0.0359413300801354    0.6701863356662598 O
   0.7662492598893410    0.7662492598893411    0.0436346459929872 O
   0.8870225637269153    0.8870225637269156    0.3168610660820668 F
   0.1129774362730844    0.1129774362730844    0.6831389339179335 F
