Na8 Fe4 O12
1.0
   5.0258591027296227   -0.0679662578921040    1.2985210088395924
   1.3753975185223473    7.8427247863844434    1.9275581194585509
   0.1400071089364297    0.0746555548464769    6.2707881288770064
Na Fe O
8 4 12
direct
   0.5000032592721435    0.4999974557055012    0.0000116823543371 Na
   0.0000020603783914   -0.0000003350737112    0.5000116985178243 Na
  -0.0000013795368258    0.0000020575209152    0.9999952367823283 Na
   0.4999987410134268    0.4999990082610686    0.4999984175620323 Na
   0.9857255104082902    0.3285953155726701    0.1714569710877532 Na
   0.4857266018895171    0.8285936667701100    0.6714574114092677 Na
   0.0142916159407474    0.6713865481822597    0.8285455418726593 Na
   0.5142908015972019    0.1713877931603821    0.3285462902490682 Na
   0.0008948152725473    0.3336265944943838    0.6663763951429884 Fe
  -0.0008944697114924    0.6663747408860541    0.3336251101050560 Fe
   0.5008955076582686    0.8336280610471961    0.1663751314431992 Fe
   0.4991052670739116    0.1663772516055829    0.8336226599596586 Fe
   0.1870139121045114    0.4349541494742470    0.3673425750411030 O
   0.2538733899073666    0.7461870883993162    0.0551334637915341 O
   0.7538731159091688    0.2461868964539187    0.5551346057970834 O
   0.7461213182701188    0.2538160587478873    0.9448616828199967 O
   0.2461216737883520    0.7538166201745528    0.4448622882448969 O
   0.2458565571573110    0.3760033652717791    0.8216708915204518 O
   0.7458571326054459    0.8760042787207587    0.3216714101182221 O
   0.8129764987082407    0.5650516874329595    0.6326541191634990 O
   0.3129774204996447    0.0650513626493846    0.1326536330349019 O
   0.7541376839963140    0.6240026720914272    0.1783237236185129 O
   0.2541360708334755    0.1240028766614776    0.6783253533848235 O
   0.6870128949639039    0.9349537857898673    0.8673427069787972 O
