Y2 P7 Rh12
1.0
   9.5959922612430830   -0.0000000062252394    0.0000000000000006
  -4.7979951137053476    8.3103736598721483    0.0000000000000006
  -0.0000000000000000   -0.0000000000000000    3.8840355589364202
Y P Rh
2 7 12
direct
   0.3333333333333358    0.6666666666666643    0.7494334772653903 Y
   0.6666666666666643    0.3333333333333357    0.2505665227346097 Y
   0.0000000000000000    0.0000000000000000    0.4999999999999999 P
   0.4058789535720104    0.2857312446201650    0.7543008293303807 P
   0.7142687553795255    0.1201477089516552    0.7543008293303807 P
   0.8798522910484574    0.5941210464281870    0.7543008293303807 P
   0.5941210464279897    0.7142687553798350    0.2456991706696193 P
   0.2857312446204745    0.8798522910483451    0.2456991706696193 P
   0.1201477089515430    0.4058789535718131    0.2456991706696193 P
   0.8482319746498095    0.7387181443306048    0.2487740603019929 Rh
   0.1095138303193667    0.8482319746499115    0.7512259396980069 Rh
   0.7387181443304428    0.8904861696806931    0.7512259396980069 Rh
   0.1517680253501905    0.2612818556693955    0.7512259396980069 Rh
   0.3823369918414929    0.4501757535923797    0.2496474924168971 Rh
   0.9321612382491055    0.3823369918417541    0.7503525075831028 Rh
   0.5498242464076123    0.9321612382493742    0.2496474924168971 Rh
   0.6176630081585073    0.5498242464076203    0.7503525075831028 Rh
   0.2612818556695571    0.1095138303193068    0.2487740603019929 Rh
   0.4501757535923879    0.0678387617506256    0.7503525075831028 Rh
   0.0678387617508950    0.6176630081582462    0.2496474924168971 Rh
   0.8904861696806332    0.1517680253500887    0.2487740603019929 Rh
