Li4 Fe4 F16
1.0
   0.0000000000000000    6.9486884812828373    0.0169072242407963
   4.8857163382104618    0.0000000000000000    0.0000000000000000
   0.0000000000000000   -1.4245566359920261   -7.1023932648393373
Li Fe F
4 4 16
direct
   0.8414260531056671    0.2480026339056440    0.1442558087642658 Li
   0.3414260531056672    0.2519973660943561    0.1442558087642658 Li
   0.6585739468943326    0.7480026339056438    0.8557441912357346 Li
   0.1585739468943330    0.7519973660943562    0.8557441912357346 Li
   0.6924809330504881    0.7456573380790784    0.3252853302223295 Fe
   0.1924809330504877    0.7543426619209217    0.3252853302223295 Fe
   0.8075190669495119    0.2456573380790783    0.6747146697776708 Fe
   0.3075190669495124    0.2543426619209218    0.6747146697776707 Fe
   0.4057278519730864    0.5661936734820977    0.8012346520563972 F
   0.9057278519730863    0.9338063265179023    0.8012346520563972 F
   0.5577416051699261    0.0971913927359282    0.6794073737735555 F
   0.1916818270356397    0.9286852929828897    0.5571708774599382 F
   0.0577416051699258    0.4028086072640718    0.6794073737735555 F
   0.6916818270356396    0.5713147070171104    0.5571708774599382 F
   0.3083181729643605    0.4286852929828898    0.4428291225400617 F
   0.0942721480269135    0.0661936734820976    0.1987653479436029 F
   0.8083181729643599    0.0713147070171104    0.4428291225400617 F
   0.4422583948300741    0.9028086072640722    0.3205926262264441 F
   0.8078221169812336    0.4158070343039579    0.9022659828077061 F
   0.5942721480269134    0.4338063265179024    0.1987653479436029 F
   0.1921778830187663    0.5841929656960425    0.0977340171922940 F
   0.6921778830187660    0.9158070343039576    0.0977340171922940 F
   0.9422583948300738    0.5971913927359279    0.3205926262264441 F
   0.3078221169812335    0.0841929656960424    0.9022659828077061 F
