Ta4 Ni12
1.0
   4.4613095037204671    0.0000000000000000   -0.8496028212163923
   0.0000000000000000    5.1253694225706665    0.0000000000000000
   0.0033715227345216    0.0000000000000000    8.6617389488966907
Ta Ni
4 12
direct
   0.3867391171125661    0.7500000000000000    0.6221146409082214 Ta
   0.6132608828874342    0.2500000000000000    0.3778853590917791 Ta
   0.2096397387256491    0.7500000000000000    0.1272467821975145 Ta
   0.7903602612743510    0.2500000000000000    0.8727532178024785 Ta
   0.2949128123939286    0.9986585098872292    0.8768288733536843 Ni
   0.8851684382595946    0.9982728057323430    0.6266061503018792 Ni
   0.7984995060046601    0.7500000000000000    0.8733699018884874 Ni
   0.1148315617404055    0.4982728057323432    0.3733938496981209 Ni
   0.6308127324973659    0.7500000000000000    0.3756412098195220 Ni
   0.2949128123939286    0.5013414901127708    0.8768288733536843 Ni
   0.3691872675026340    0.2500000000000000    0.6243587901804779 Ni
   0.7050871876060716    0.0013414901127711    0.1231711266463157 Ni
   0.7050871876060716    0.4986585098872288    0.1231711266463157 Ni
   0.1148315617404055    0.0017271942676568    0.3733938496981209 Ni
   0.2015004939953399    0.2500000000000000    0.1266300981115124 Ni
   0.8851684382595946    0.5017271942676569    0.6266061503018792 Ni
