W4 Se4 S4
1.0
   3.2581837375653322    0.0000000000000000    0.0000000000000000
  -1.6290918687826661    2.8216724456975313    0.0004590700416034
   0.0000000000000000    0.0053972850071641   33.4331716923057201
W Se S
4 4 4
direct
   0.3343876719939035    0.6687743439878095    0.0900732669321613 W
   0.3322371972966828    0.6644733945933683    0.4687215382797073 W
   0.6664181873655864    0.3328343747311564    0.2758067421639704 W
   0.6669593521530369    0.3339187043060664    0.6683225404642110 W
   0.3335420019234945    0.6670850038470008    0.7193676907489424 Se
   0.6656042308351066    0.3312084616701989    0.4176225210874088 Se
   0.6655193539140624    0.3310377078281345    0.5198222994837284 Se
   0.3337242630935441    0.6674495261870929    0.6172057048695624 Se
   0.3329026161876555    0.6658042323753136    0.3222722376166655 S
   0.6677765080201317    0.3355530160402563    0.0436454420323270 S
   0.6676631222289658    0.3353272444579291    0.1365337049917804 S
   0.3332654949878374    0.6665329899756769    0.2293563113295346 S
