Rb3 Bi1 Cl6
1.0
   7.0090344904747734   -0.0000000000000000    4.0466679498349833
   2.3363448301582586    6.6081810903801479    4.0466679498349833
  -0.0000000000000000   -0.0000000000000000    8.0933358996699649
Rb Bi Cl
3 1 6
direct
   0.7500000000000001    0.7499999999999999    0.7500000000000001 Rb
   0.2500000000000000    0.2500000000000000    0.2500000000000000 Rb
   0.5000000000000000    0.4999999999999999    0.5000000000000000 Rb
   0.0000000000000000    0.0000000000000000    0.0000000000000000 Bi
   0.7639969079052803    0.2360030920947198    0.2360030920947198 Cl
   0.2360030920947199    0.2360030920947198    0.7639969079052804 Cl
   0.2360030920947198    0.7639969079052803    0.7639969079052804 Cl
   0.2360030920947198    0.7639969079052803    0.2360030920947200 Cl
   0.7639969079052803    0.2360030920947198    0.7639969079052804 Cl
   0.7639969079052803    0.7639969079052803    0.2360030920947197 Cl
