Fe2 W2 Cl2 O8
1.0
   5.3500769484480974    0.0000000000000000   -0.0000000000000000
   0.0000000000000000    6.7304161527996209   -0.0000000000000000
   0.0000000000000000    0.0000000000000000    6.7304161527996209
Fe W Cl O
2 2 2 8
direct
   0.2819442927839444    0.2500000000000000    0.2500000000000000 Fe
   0.7180557072160556    0.7500000000000000    0.7500000000000000 Fe
   0.0000000000000000    0.2500000000000000    0.7500000000000000 W
   0.0000000000000000    0.7500000000000000    0.2500000000000000 W
   0.3051351097016922    0.7500000000000000    0.7500000000000000 Cl
   0.6948648902983082    0.2500000000000000    0.2500000000000000 Cl
   0.1984991963461843    0.2500000000000000    0.5346222735903473 O
   0.1984991963461843    0.9653777264096527    0.2500000000000000 O
   0.8015008036538154    0.0346222735903478    0.7500000000000000 O
   0.8015008036538154    0.4653777264096521    0.7500000000000000 O
   0.8015008036538154    0.7500000000000000    0.4653777264096521 O
   0.1984991963461843    0.5346222735903473    0.2500000000000000 O
   0.1984991963461843    0.2500000000000000    0.9653777264096527 O
   0.8015008036538154    0.7500000000000000    0.0346222735903478 O
