Zr18 B2 W8
1.0
   8.6356215034449075   -0.0000131835756608    0.0000000000000005
  -4.3178247599997048    7.4786595117619425    0.0000000000000005
  -0.0000000000000000   -0.0000000000000000    8.5990027878074127
Zr B W
18 2 8
direct
   0.7969016578216468    0.5938055813496206    0.5566920501771377 Zr
   0.9205984192855314    0.4602986565569356    0.2500000000000000 Zr
   0.5397056877272359    0.4602943122727641    0.2500000000000000 Zr
   0.5397013434430644    0.0794015807144687    0.2500000000000000 Zr
   0.0794015807144686    0.5397013434430644    0.7500000000000000 Zr
   0.4602986565569356    0.9205984192855313    0.7500000000000000 Zr
   0.4061944186503795    0.2030983421783533    0.9433079498228624 Zr
   0.7969023200774955    0.2030976799225047    0.9433100023606232 Zr
   0.7969016578216468    0.5938055813496206    0.9433079498228624 Zr
   0.4602943122727641    0.5397056877272358    0.7500000000000000 Zr
   0.2030976799225046    0.7969023200774954    0.0566899976393766 Zr
   0.2030983421783533    0.4061944186503794    0.0566920501771376 Zr
   0.5938055813496206    0.7969016578216467    0.4433079498228623 Zr
   0.2030976799225046    0.7969023200774954    0.4433100023606235 Zr
   0.2030983421783533    0.4061944186503794    0.4433079498228623 Zr
   0.4061944186503795    0.2030983421783533    0.5566920501771377 Zr
   0.7969023200774955    0.2030976799225047    0.5566899976393769 Zr
   0.5938055813496206    0.7969016578216467    0.0566920501771376 Zr
   0.3333315147519492    0.6666684852480507    0.2500000000000000 B
   0.6666684852480509    0.3333315147519493    0.7500000000000000 B
   0.1104281402856566    0.2208587475521039    0.7500000000000000 W
   0.1104288513044483    0.8895711486955515    0.7500000000000000 W
   0.7791412524478961    0.8895718597143434    0.7500000000000000 W
   0.8895718597143435    0.7791412524478961    0.2500000000000000 W
   0.8895711486955517    0.1104288513044484    0.2500000000000000 W
   0.2208587475521039    0.1104281402856566    0.2500000000000000 W
   0.0000000000000000    0.0000000000000000    0.5000000000000000 W
   0.0000000000000000    0.0000000000000000    0.0000000000000000 W
