Mn1 Cu2 Pb1 Se4
1.0
   0.0003451857693930    4.1713811420236224    5.6302811520986786
   4.1717253950328166    0.0001942221582840    5.6303530444336225
   4.1718398641199963    4.1716467347371351    0.0000584581195997
Mn Cu Pb Se
1 2 1 4
direct
  -0.0000749349432927   -0.0000662336381875   -0.0000529187283956 Mn
   0.2499399646829616    0.2499412465412729    0.2499502992805142 Cu
   0.7499420522800733    0.7499373573949891    0.7499460960762255 Cu
   0.4999492217289223    0.4999522136604808    0.4999278167533021 Pb
   0.9250521983297058    0.3572741922057077    0.0748216274390931 Se
   0.0748385142098896    0.6425775386631505    0.3572925533141955 Se
   0.3572733245685874    0.9250510440258429    0.6425890624220219 Se
   0.6425796591431497    0.0748326411467425    0.9250254634430396 Se
