Sn1 Ge1 S4
1.0
  -2.6268578682703589    2.6268578682703589    5.0829180745115483
   2.6268578682703589   -2.6268578682703589    5.0829180745115483
   2.6268578682703589    2.6268578682703589   -5.0829180745115483
Sn Ge S
1 1 4
direct
   0.0000000000000000    0.0000000000000000    0.0000000000000000 Sn
   0.7499999194873369    0.2499998628205519    0.5000000566667850 Ge
   0.5270779224918234    0.0270778658250383    0.5000000566667850 S
   0.2383213853879236    0.2383213853879236   -0.0000000000000000 S
   0.9729219164925208    0.4729218598257287    0.5000000566667850 S
   0.7616780659039540    0.7616780659039539   -0.0000000000000000 S
