P4 W2 O16
1.0
   4.9189427785177751    0.0000000217132139   -1.6738033635420024
  -0.4910853275316704    6.7979249287262835   -1.4431909325322076
   0.0382579475384166    0.0060071776765148    8.1771872772481178
P W O
4 2 16
direct
   0.6594578229148806    0.6137243573899470    0.3189156458337908 P
   0.6626479544271380    0.0463687281301937    0.3252959088768990 P
   0.3405421770851197    0.3862756426100524    0.6810843541662089 P
   0.3373520455728626    0.9536312718698056    0.6747040911231006 P
   0.9002308698053824    0.7055807172823716    0.8004617395901846 W
   0.0997691301946171    0.2944192827176282    0.1995382604098151 W
   0.2409543147156183    0.8810504367053730    0.4819086294219956 O
   0.8515324918574421    0.5012093213332872    0.2290340903887615 O
   0.7576009729651920    0.6406111963510513    0.5152029459345587 O
   0.2423990270348076    0.3593888036489493    0.4847970540654411 O
   0.0130889834005787    0.7540388220722705    0.0261769668481468 O
   0.7590456852843820    0.1189495632946265    0.5180913705780048 O
   0.6235196347931725    0.8922109588035372    0.7778501038153492 O
   0.3775015985146896    0.5012093213275470    0.2290340903782824 O
   0.1484675081425574    0.4987906786667125    0.7709659096112392 O
   0.6224984014853100    0.4987906786724526    0.7709659096217176 O
   0.8456705309844321    0.1077890412036263    0.2221498961954371 O
   0.3732480724105949    0.1875468496825113    0.7464961448329306 O
   0.1543294690155682    0.8922109587963806    0.7778501038045639 O
   0.3764803652068270    0.1077890411964702    0.2221498961846511 O
   0.6267519275894059    0.8124531503174883    0.2535038551670696 O
  -0.0130889834005787    0.2459611779277295   -0.0261769668481468 O
