Co4 O8
1.0
   5.0917266377009387   -0.5593878278588197    0.5913677244988306
   2.0614200018179809    4.6892589134969933    0.5913676884658418
   2.8672320751807501    1.6553981413310577    4.6821702287448277
Co O
4 8
direct
   0.1249937744299946    0.1249937745524407    0.8750062254915825 Co
   0.1250062255700053    0.1250062254475593    0.3749937745084175 Co
   0.6249999999999998    0.6250000000000000    0.1250000000000000 Co
   0.6249999999999999    0.6250000000000000    0.6250000000000000 Co
   0.3197031941243861    0.3197031941159233    0.4302992680345275 O
   0.4302962553533136    0.8197052476007589    0.3749997487764762 O
   0.3197031942043758    0.3197031940518231    0.9302953437394722 O
   0.8197052474205468    0.4302962552193364    0.3749997484197891 O
   0.4302947525794528    0.8197037447806640    0.8750002515802106 O
   0.8197037446466867    0.4302947523992412    0.8750002512235237 O
   0.9302968057956237    0.9302968059481771    0.3197046562605280 O
   0.9302968058756141    0.9302968058840769    0.8197007319654728 O
