Ni2 Se2
1.0
   1.8480773248582723   -3.2009647957721543    0.0000000000000000
   1.8480773248582723    3.2009647957721543    0.0000000000000000
   0.0000000000000000    0.0000000000000000    5.2629389562153088
Ni Se
2 2
direct
   0.0000000000000000    0.0000000000000000    0.0000000000000000 Ni
   0.0000000000000000    0.0000000000000000    0.5000000000000000 Ni
   0.3333330000000032    0.6666669999999968    0.7500000000000000 Se
   0.6666669999999968    0.3333330000000032    0.2500000000000000 Se
