Ba2 Er2 Cu2 S6
1.0
   3.9993661768082149    0.0000000017459609    0.0000000000000000
  -1.9996835848037409    6.7537928003760381    0.0000000000000000
  -0.0000000000000000   -0.0000000000000000   10.1322886739292528
Ba Er Cu S
2 2 2 6
direct
   0.7441947829865224    0.4883905659727282    0.2500000000000000 Ba
   0.2558052170134781    0.5116094340272719    0.7500000000000000 Ba
   0.0000000000000000    0.0000000000000000    0.5000000000000000 Er
   0.0000000000000000    0.0000000000000000    0.0000000000000000 Er
   0.5329691888667829    0.0659393777332601    0.7500000000000000 Cu
   0.4670308111332174    0.9340606222667397    0.2500000000000000 Cu
   0.9343313952189757    0.8686617904373828    0.7500000000000000 S
   0.0656686047810243    0.1313382095626171    0.2500000000000000 S
   0.6317313092142146    0.2634626184286156    0.5594916211599379 S
   0.6317313092142146    0.2634626184286156    0.9405083788400621 S
   0.3682686907857857    0.7365373815713843    0.0594916211599307 S
   0.3682686907857857    0.7365373815713843    0.4405083788400693 S
