Yb10 Sn6
1.0
   9.2385048488235348   -0.0000514416439502    0.0000000000000000
  -4.6192963128282871    8.0008135673132283    0.0000000000000000
   0.0000000000000000    0.0000000000000000    6.6408984048646280
Yb Sn
10 6
direct
   0.3333300167881891    0.6666700081239001    0.0000000070733395 Yb
   0.6666695156233559    0.3333296559807317    0.5000000462558923 Yb
   0.6666695156233559    0.3333296559807317   -0.0000000462558925 Yb
   0.3333300167881891    0.6666700081239001    0.4999999929266609 Yb
   0.2744887319777374    0.0000095406580668    0.2500000000000000 Yb
   0.7255109907683702    0.9999901122735607    0.7500000000000000 Yb
   0.0000099405366793    0.2744871089082936    0.2500000000000000 Yb
   0.7255470790257572    0.7255466665819278    0.2500000000000000 Yb
   0.2744527566418316    0.2744528778501543    0.7500000000000000 Yb
   0.9999898735275734    0.7255125105005936    0.7500000000000000 Yb
   0.6175320554792366    0.0000052988436827    0.2500000000000000 Sn
   0.3824673808143685    0.9999943155441622    0.7500000000000000 Sn
   0.0000051477107353    0.6175311349875290    0.2500000000000000 Sn
   0.3825022397483933    0.3825022338939282    0.2500000000000000 Sn
   0.6174973329287522    0.6174972981305520    0.7500000000000000 Sn
  -0.0000055939825322    0.3824685736182870    0.7500000000000000 Sn
