Mn12 O16
1.0
   2.9317615670596364   -0.0000377896471415    0.0023808263326354
   0.0001197044317491    9.6802203390107646    0.0000728142793623
  -0.0080462341670856   -0.0000323093157230    9.7060702080332906
Mn O
12 16
direct
   0.2507217973326250    0.7499992199435740    0.1347092219554994 Mn
   0.2494482747354059    0.0691285263843650    0.6197456549172328 Mn
   0.7505389555463360    0.9308748849496995    0.3802536166198756 Mn
   0.7505343101813999    0.5691257882195069    0.3802528814097719 Mn
   0.2494607675983216    0.5691268250480508    0.8802544083482132 Mn
   0.7505524430096934    0.4308724033285136    0.1197444896921140 Mn
   0.7505573501662047    0.0691282544848825    0.1197453002820480 Mn
   0.2494500643951131    0.4308718357274081    0.6197454148229939 Mn
   0.2507627348352082    0.2499997393893643    0.3652784227216431 Mn
   0.7492445132505299    0.2500002930330046    0.8652785417939538 Mn
   0.7492683618613404    0.7499996146843497    0.6347095071461285 Mn
   0.2494593970709176    0.9308740118337023    0.8802551257926379 Mn
   0.7504108790983470    0.1131610640754696    0.4738964720636116 O
   0.2495957907516491    0.1131611067880001    0.9738957356159514 O
   0.2495874290435302    0.6131577323691230    0.5261064839149036 O
   0.2495883954040032    0.8868422225565424    0.5261072065487619 O
   0.7504028973591983    0.3868388690510667    0.4738987253956575 O
   0.7504080759826319    0.6131577726343294    0.0261063114505981 O
   0.7507751641344536    0.2499999675552688    0.2088307590206081 O
   0.2512832913186637    0.0000016612083998    0.2500002128317865 O
   0.7507257548689440    0.7499997451580154    0.2911726318977410 O
   0.2492600655219793    0.7499999264396078    0.7911737161993051 O
   0.7487223226321792    0.4999973125840332    0.7500010974334593 O
   0.7487123421450441    0.0000012799227726    0.7500009708328278 O
   0.2495958701887001    0.3868388177939676    0.9738982915169069 O
   0.2512765528103433    0.4999977081429374    0.2499984941533980 O
   0.2492350690139478    0.2499999484864083    0.7088317528511647 O
   0.7504171297432854    0.8868424682076602    0.0261075527711997 O
