Al10 W2
1.0
   2.4645024118049705   -4.2686436415743092    0.0000000000000000
   2.4645024118049705    4.2686436415743092   -0.0000000000000000
   0.0000000000000000    0.0000000000000000    8.9030165914006609
Al W
10 2
direct
   0.0000000000000000    0.0000000000000000    0.2500000000000000 Al
   0.0000000000000000    0.0000000000000000    0.7500000000000000 Al
   0.3333330000000032    0.6666669999999968    0.2500000000000000 Al
   0.6666669999999968    0.3333330000000032    0.7500000000000000 Al
   0.3387472919611755    0.3387472919611755    0.5000000000000000 Al
  -0.0000000000000349    0.3387472919612105    0.0000000000000000 Al
   0.3387472919612105   -0.0000000000000349    0.0000000000000000 Al
   0.6612527080387897    0.0000000000000348    0.5000000000000000 Al
   0.0000000000000349    0.6612527080387897    0.5000000000000000 Al
   0.6612527080388246    0.6612527080388246    0.0000000000000000 Al
   0.3333330000000032    0.6666669999999968    0.7500000000000000 W
   0.6666669999999968    0.3333330000000032    0.2500000000000000 W
