Mg1 In1 Ir2
1.0
   0.0000000000000000    3.1845499177872001    3.1845499177872001
   3.1845499177872001   -0.0000000000000000    3.1845499177872001
   3.1845499177872001    3.1845499177872001   -0.0000000000000000
Mg In Ir
1 1 2
direct
   0.7499990000000025    0.7499990000000025    0.7499990000000025 Mg
   0.2500009999999975    0.2500009999999975    0.2500009999999975 In
   0.0000000000000000    0.0000000000000000    0.0000000000000000 Ir
   0.5000009999999975    0.5000009999999975    0.5000009999999975 Ir
