Li1 Pr2 Ag1
1.0
  -0.0000000000000000    3.7713536974618287    3.7713536974618287
   3.7713536974618287    0.0000000000000000    3.7713536974618287
   3.7713536974618287    3.7713536974618287    0.0000000000000000
Li Pr Ag
1 2 1
direct
   0.7500000000000001    0.7500000000000000    0.7500000000000001 Li
   0.0000000000000000    0.0000000000000000    0.0000000000000000 Pr
   0.5000000000000001    0.5000000000000000    0.5000000000000001 Pr
   0.2500000000000001    0.2500000000000000    0.2500000000000001 Ag
