Ba2 Dy1 Sb1 O6
1.0
   5.2033138846977227    0.0000000011044332    3.0041343946156509
   1.7344376303149875    4.9057312768035102    3.0041343946156509
   0.0000000000000000    0.0000000000000000    6.0082687892313018
Ba Dy Sb O
2 1 1 6
direct
   0.7500000000000000    0.7500000000000000    0.7500000000000000 Ba
   0.2500000000000000    0.2500000000000000    0.2499999999999999 Ba
   0.0000000000000000    0.0000000000000000    0.0000000000000000 Dy
   0.5000000000000000    0.5000000000000000    0.4999999999999998 Sb
   0.2628902642461250    0.7371097357539059    0.7371097357539914 O
   0.2628902642461250    0.7371097357539059    0.2628902642459772 O
   0.7371097357538751    0.2628902642460939    0.7371097357540226 O
   0.2628902642460808    0.2628902642460185    0.7371097357539503 O
   0.7371097357538751    0.2628902642460939    0.2628902642460084 O
   0.7371097357539191    0.7371097357539815    0.2628902642460498 O
