Ce4 Mg2
1.0
   3.1177675461809735   -0.0000000009187751    0.0000000000000000
  -1.5588832746757828    2.7000662345667501    0.0000000000000000
   0.0000000000000000   -0.0000000000000000   18.0374023144086095
Ce Mg
4 2
direct
   0.3333330000000032    0.6666669999999969    0.9137505233309655 Ce
   0.3333330000000032    0.6666669999999969    0.5862494766690345 Ce
   0.6666669999999969    0.3333330000000032    0.4137505233309657 Ce
   0.6666669999999969    0.3333330000000032    0.0862494766690343 Ce
   0.6666669999999969    0.3333330000000032    0.7500000000000000 Mg
   0.3333330000000032    0.6666669999999969    0.2500000000000000 Mg
