Zr3 Sn3 Rh3
1.0
   0.0000000000000000    0.0000000000000000   -3.6748914635345722
  -3.6925653639271139   -6.3957084485933526    0.0000000000000000
  -3.6925830872845102    6.3957201232980623    0.0000000000000000
Zr Sn Rh
3 3 3
direct
   0.4999999999999999    0.6031372217371130   -0.0000000000000001 Zr
   0.4999999999999999    0.3968421115060566    0.3968496404118742 Zr
   0.4999999999999999    0.9999924710941821    0.6031503595881260 Zr
   0.0000000000000000    0.2684441466964365   -0.0000000000000004 Sn
   0.0000000000000000    0.7315317553977302    0.7315420373074605 Sn
   0.0000000000000000    0.9999897180902696    0.2684579626925399 Sn
   0.0000000000000000    0.3333218189656740    0.6666685674481411 Rh
   0.0000000000000000    0.6666532515175330    0.3333314325518589 Rh
   0.4999999999999999    0.9999875049950020    0.0000000000000000 Rh
