Sm2 Zn6 P6
1.0
   2.0167749209691750   -3.4931570310532662   -0.0000000000000000
   2.0167749209691750    3.4931570310532662   -0.0000000000000000
  -0.0000000000000000    0.0000000000000000   20.0415295235712669
Sm Zn P
2 6 6
direct
   0.0000000000000000    0.0000000000000000    0.5000000000000000 Sm
   0.0000000000000000    0.0000000000000000    0.0000000000000000 Sm
   0.6666669999999968    0.3333330000000032    0.7500000000000000 Zn
   0.3333330000000032    0.6666669999999968    0.2500000000000000 Zn
   0.6666669999999968    0.3333330000000032    0.3712758864352201 Zn
   0.3333330000000032    0.6666669999999968    0.8712758864352200 Zn
   0.3333330000000032    0.6666669999999968    0.6287241135647799 Zn
   0.6666669999999968    0.3333330000000032    0.1287241135647798 Zn
   0.6666669999999968    0.3333330000000032    0.2500000000000000 P
   0.3333330000000032    0.6666669999999968    0.7500000000000000 P
   0.3333330000000032    0.6666669999999968    0.4142734950910731 P
   0.6666669999999968    0.3333330000000032    0.9142734950910731 P
   0.6666669999999968    0.3333330000000032    0.5857265049089270 P
   0.3333330000000032    0.6666669999999968    0.0857265049089269 P
