Nb2 Cl8
1.0
   5.9941218006651260   -0.0000000002571146    3.3454848549350245
   2.7882779593862410    5.8601524215845089    2.0468198633607750
   0.0096464589460998   -0.0709052713082553    7.0253076890422994
Nb Cl
2 8
direct
   0.2201779785483140    0.0000000000000793   -0.0000000000000434 Nb
   0.7798220214516858   -0.0000000000000793    0.0000000000000435 Nb
   0.6913248570273555    0.7761205600948922    0.8412307258502136 Cl
   0.3086751429726442    0.2238794399051081    0.1587692741497871 Cl
   0.7807191076877219    0.2572244123405367    0.1813373722843151 Cl
   0.2192808923122778    0.7427755876594636    0.8186626277156849 Cl
   0.7238471532918526    0.7528248877358051    0.3106394343286615 Cl
   0.7873104753570734    0.2471751122641085    0.6893605656713950 Cl
   0.2761528467081479    0.2471751122641949    0.6893605656713380 Cl
   0.2126895246429267    0.7528248877358912    0.3106394343286047 Cl
