Li4 Ce2 Sb4
1.0
   4.6159437465542190   -0.0000000000000000   -0.0000000000000000
   0.0000000000000000    4.6159437465542190    0.0000000000000000
  -0.0000000000000000    0.0000000000000000   10.8952498098961197
Li Ce Sb
4 2 4
direct
   0.5000000000000000    0.0000000000000000    0.3783756464345757 Li
   0.0000000000000000    0.5000000000000000    0.6216243535654234 Li
   0.5000000000000000    0.5000000000000000    0.0000000000000000 Li
   0.0000000000000000    0.0000000000000000    0.0000000000000000 Li
   0.5000000000000000    0.0000000000000000    0.7320429172774910 Ce
   0.0000000000000000    0.5000000000000000    0.2679570827225106 Ce
   0.0000000000000000    0.5000000000000000    0.8539934421973761 Sb
   0.5000000000000000    0.0000000000000000    0.1460065578026263 Sb
   0.5000000000000000    0.5000000000000000    0.5000000000000000 Sb
   0.0000000000000000    0.0000000000000000    0.5000000000000000 Sb
