Cd4 Ge6 O18
1.0
   6.4596461270652767   -0.0758949421359291   -2.8977422021646322
  -1.9549577307491226    7.1082755168191376   -1.8997704337323689
   0.0678117817229317   -0.0180428292575003    8.0209034432181276
Cd Ge O
4 6 18
direct
   0.8863457538532693    0.2396788660544806    0.1095889805672077 Cd
   0.1136542461467301    0.7603211339455194    0.8904110194327922 Cd
   0.8284301106378291    0.6459424756638897    0.3970687449273370 Cd
   0.1715698893621720    0.3540575243361107    0.6029312550726622 Cd
   0.2823114480858465    0.6173213313276538    0.3169194512722781 Ge
   0.6813672070525756    0.9544763652731888    0.6537387748104936 Ge
   0.7176885519141538    0.3826786686723462    0.6830805487277221 Ge
   0.3606126704382068    0.2594920671500149    0.0386432542388684 Ge
   0.6393873295617917    0.7405079328499850    0.9613567457611313 Ge
   0.3186327929474245    0.0455236347268111    0.3462612251895059 Ge
   0.6119682654939602    0.0279164671299018    0.4264453197411489 O
   0.2347692229498484    0.1616130799694024    0.7789533289255868 O
   0.7652307770501516    0.8383869200305981    0.2210466710744143 O
   0.9050234693179376    0.4780378791502357    0.6150927147638990 O
   0.0949765306820627    0.5219621208497631    0.3849072852361008 O
   0.9409543682443841    0.9014081710855446    0.6780550452241179 O
   0.0590456317556155    0.0985918289144554    0.3219449547758820 O
   0.3880317345060393    0.9720835328700986    0.5735546802588514 O
   0.5557112373700989    0.6888920585337823    0.4964695099787766 O
   0.7057186538839455    0.9347655417919337    0.8903707308387044 O
   0.2208696198201852    0.4194072105175595    0.1071662209990184 O
   0.7791303801798144    0.5805927894824405    0.8928337790009812 O
   0.3664033570313068    0.6290003456803256    0.8602505846220552 O
   0.4442887626299011    0.3111079414662176    0.5035304900212239 O
   0.8014056566804735    0.2151794581238167    0.7959561779300020 O
   0.1985943433195267    0.7848205418761831    0.2040438220699972 O
   0.2942813461160538    0.0652344582080664    0.1096292691612959 O
   0.6335966429686933    0.3709996543196742    0.1397494153779444 O
