Yb4 Mg8
1.0
   3.0873124266292873   -5.3473830019633661    0.0000000000000000
   3.0873124266292873    5.3473830019633661   -0.0000000000000000
  -0.0000000000000000   -0.0000000000000000    9.9973880379252424
Yb Mg
4 8
direct
   0.6666669999999968    0.3333330000000032    0.0610243500507515 Yb
   0.3333330000000032    0.6666669999999968    0.5610243500507516 Yb
   0.3333330000000032    0.6666669999999968    0.9389756499492483 Yb
   0.6666669999999968    0.3333330000000032    0.4389756499492484 Yb
   0.1687505365526967    0.3375000731055168    0.2500000000000000 Mg
   0.3375000731055168    0.1687505365526967    0.7500000000000000 Mg
   0.8312494634471822    0.1687505365528175    0.7500000000000000 Mg
   0.1687505365528175    0.8312494634471822    0.2500000000000000 Mg
   0.0000000000000000    0.0000000000000000    0.0000000000000000 Mg
   0.0000000000000000    0.0000000000000000    0.5000000000000000 Mg
   0.8312494634473032    0.6624999268944832    0.7500000000000000 Mg
   0.6624999268944832    0.8312494634473032    0.2500000000000000 Mg
