Ca1 Ho1 Zn2
1.0
   4.3722468522086650   -0.0000000000000000    2.5243178970861671
   1.4574156174028885    4.1221938642910443    2.5243178970861671
  -0.0000000000000000   -0.0000000000000000    5.0486357941723332
Ca Ho Zn
1 1 2
direct
   0.5000000000000000    0.5000000000000000    0.5000000000000001 Ca
   0.0000000000000000    0.0000000000000000    0.0000000000000000 Ho
   0.2500000000000000    0.2500000000000000    0.2500000000000001 Zn
   0.7500000000000000    0.7500000000000000    0.7500000000000002 Zn
