Ti1 Nb2 W1
1.0
  -0.0000000000000000    3.2524947506696278    3.2524947506696278
   3.2524947506696278   -0.0000000000000000    3.2524947506696278
   3.2524947506696278    3.2524947506696278   -0.0000000000000000
Ti Nb W
1 2 1
direct
   0.2500000000000000    0.2500000000000000    0.2500000000000000 Ti
   0.0000000000000000    0.0000000000000000    0.0000000000000000 Nb
   0.5000000000000000    0.5000000000000000    0.5000000000000000 Nb
   0.7500000000000000    0.7500000000000000    0.7500000000000000 W
