Rb2 Pt1 Se2
1.0
   3.6669794701218730    0.0000000007503827    1.0949635689273349
   1.3249539253870013    6.0654097239146321    2.2505427399426341
   0.0251047528150034    0.0228406533519852    6.6036727362064669
Rb Pt Se
2 1 2
direct
   0.1979183341391309    0.3020816658607433    0.3020816658610078 Rb
   0.8020816658608694    0.6979183341392567    0.6979183341389918 Rb
   0.0000000000000000    0.0000000000000000    0.0000000000000000 Pt
   0.4999999999979071    0.7830952386431810    0.2169047613586701 Se
   0.5000000000020932    0.2169047613568187    0.7830952386413300 Se
