Na2 Li2 O2
1.0
   1.6534994323764065   -2.8645468280091522    0.0000000000000000
   0.0000000000000000   -5.7290936560183043    0.0000000000000000
   0.0000000000000000    0.0000000000000000   -6.6577548015286396
Na Li O
2 2 2
direct
   0.5021803772405250    0.4989098113797412    0.0000000000000000 Na
   0.5021803772405250    0.4989098113797412    0.4999999999999999 Na
   0.5021695937064191    0.8321836619320780    0.7499999999999999 Li
   0.5021695937064191    0.1656477443615004    0.2500000000000000 Li
   0.5021630290530544    0.8323466131094434    0.2500000000000000 O
   0.5021630290530544    0.1654903578375026    0.7499999999999999 O
