Li6 Mn1 F8
1.0
  -4.0797572423071742    4.0797572423071742   -0.0000000000000000
   4.0797572423071742    0.0000000000000000    4.0797572423071742
   4.0797572423071742    4.0797572423071742   -0.0000000000000000
Li Mn F
6 1 8
direct
   0.5000000000000000    0.0000000000000000   -0.0000000000000000 Li
   0.5000000000000000    0.5000000000000000    0.0000000000000000 Li
  -0.0000000000000000    0.0000000000000000    0.5000000000000000 Li
   0.5000000000000000    0.5000000000000000    0.5000000000000000 Li
  -0.0000000000000000    0.5000000000000000    0.0000000000000000 Li
  -0.0000000000000000    0.5000000000000000    0.5000000000000000 Li
   0.0000000000000000    0.0000000000000000    0.0000000000000000 Mn
   0.7573970061183816    0.0000000000000000    0.2426029938816182 F
   0.7573970061183817    0.5147920122367688    0.2426029938816181 F
   0.2426029938816181    0.0000000000000000    0.2426029938816181 F
   0.7573970061183816    0.0000000000000000    0.7573970061183817 F
   0.2500000000000000    0.5000000000000000    0.2500000000000000 F
   0.7500000000000000    0.5000000000000000    0.7500000000000000 F
   0.2426029938816182    0.0000000000000000    0.7573970061183816 F
   0.2426029938816181    0.4852079877632312    0.7573970061183817 F
