Mg1 Be2 Sn1
1.0
  -1.9754312631688122    1.9754312631688122    4.0973419800555035
   1.9754312631688122   -1.9754312631688122    4.0973419800555035
   1.9754312631688122    1.9754312631688122   -4.0973419800555035
Mg Be Sn
1 2 1
direct
   0.5000000000000000    0.5000000000000000    0.0000000000000000 Mg
   0.0000000000000000    0.0000000000000000    0.0000000000000000 Be
   0.2500000000000000    0.7500000000000000    0.5000000000000000 Be
   0.7499999999999999    0.2500000000000000    0.5000000000000000 Sn
