Ba1 Re1 H9
1.0
   3.2163048367204796   -3.5295460876756235    0.0239384678138925
   3.2163048367204796    3.5295460876756235    0.0239384678138925
  -0.6919776332552807    0.0000000000000000    4.7248335836358857
Ba Re H
1 1 9
direct
   0.0000000000000000    0.0000000000000000    0.0000000000000000 Ba
   0.4999999999999999    0.5000000000000000    0.5000000000000000 Re
   0.7382000028511045    0.5000000000000000    0.2617999971488880 H
   0.2617999971488880    0.7382000028511047    0.4999999999999999 H
   0.4999999999999999    0.2617999971488880    0.7382000028511047 H
   0.3215442840976426    0.5166460025340814    0.1751270424094699 H
   0.1751270424094699    0.3215442840976427    0.5166460025340814 H
   0.5166460025340814    0.1751270424094700    0.3215442840976427 H
   0.8248729575905299    0.4833539974659185    0.6784557159023571 H
   0.4833539974659184    0.6784557159023571    0.8248729575905300 H
   0.6784557159023570    0.8248729575905299    0.4833539974659185 H
