Ba4 Pd1 W1
1.0
  -0.0000000000000000    4.7829368466452742    4.7829368466452733
   4.7829368466452742   -0.0000000000000000    4.7829368466452733
   4.7829368466452742    4.7829368466452742   -0.0000000000000000
Ba Pd W
4 1 1
direct
   0.1254961113946055    0.6248346295351316    0.6248346295351317 Ba
   0.6248346295351315    0.6248346295351316    0.6248346295351316 Ba
   0.6248346295351316    0.1254961113946056    0.6248346295351315 Ba
   0.6248346295351316    0.6248346295351315    0.1254961113946055 Ba
   0.2500000000000000    0.2500000000000000    0.2500000000000000 Pd
   0.0000000000000000    0.0000000000000000    0.0000000000000000 W
