Ca2 Si2 O6
1.0
   4.4126379298535507   -0.0000000005729088    2.5409091534734518
   1.4967747783531473    4.1683214377786904    2.5026758552891515
   0.0086170018889621    0.0176524636667708    5.0870657007438433
Ca Si O
2 2 6
direct
   0.7500000000000001    0.7491289971449430    0.7508710028550573 Ca
   0.2500000000000002    0.2508710028550571    0.2491289971449429 Ca
   0.5000000000000000    0.5000000000000000    0.5000000000000000 Si
   0.0000000000000000    0.0000000000000000    0.0000000000000000 Si
   0.7499999999999964    0.2131983008720912    0.2868016991279095 O
   0.2500000000000037    0.7868016991279088    0.7131983008720908 O
   0.7688730569804241    0.7311269430195769    0.2311269430195756 O
   0.7311269430195763    0.2688730569804234    0.7688730569804240 O
   0.2688730569804240    0.7311269430195769    0.2311269430195756 O
   0.2311269430195760    0.2688730569804233    0.7688730569804240 O
