Na1 H2 N1
1.0
   2.7030901359329258    0.0000000000000000   -0.0000000000000000
   0.0000000000000000    2.7030901359329258   -0.0000000000000000
   0.0000000000000000    0.0000000000000000    3.7324395838588900
Na H N
1 2 1
direct
   0.0000000000000000    0.0000000000000000    0.0000000000000000 Na
   0.4999994334919151    0.0000000000000000    0.4999999665285841 H
   0.0000000000000000    0.4999994334919151    0.4999999665285841 H
   0.4999994334919151    0.4999994334919151    0.4999999665285841 N
