Li1 As2 Rh2
1.0
  -2.0340988149453714    2.0340988149453714    5.3480656449937314
   2.0340988149453714   -2.0340988149453714    5.3480656449937314
   2.0340988149453714    2.0340988149453714   -5.3480656449937314
Li As Rh
1 2 2
direct
   0.0000000000000000    0.0000000000000000    0.0000000000000000 Li
   0.3779555662176403    0.3779555662176403    0.0000000000000000 As
   0.6220444337823599    0.6220444337823599   -0.0000000000000000 As
   0.7499999999999999    0.2500000000000001    0.4999999999999999 Rh
   0.2500000000000000    0.7499999999999999    0.5000000000000000 Rh
