Sm1 Dy1 Fe17
1.0
   6.2202698323800396    0.0366266638951619    0.7981620206316432
   0.7069101238462925    6.1800796819294606    0.7981620206484235
   0.0408128824417587    0.0366266638605574    6.2711356837362109
Sm Dy Fe
1 1 17
direct
   0.6551707875869754    0.6551707875869752    0.6551707875869750 Sm
   0.3439709577566593    0.3439709577566595    0.3439709577566594 Dy
   0.2934934706452853    0.7058579050099760    0.0009318181347802 Fe
   0.0009318181347803    0.2934934706452854    0.7058579050099757 Fe
   0.7058579050099759    0.0009318181347804    0.2934934706452851 Fe
   0.0009318181347803    0.7058579050099762    0.2934934706452851 Fe
   0.2934934706452852    0.0009318181347803    0.7058579050099759 Fe
   0.7058579050099759    0.2934934706452854    0.0009318181347802 Fe
   0.4992709836189159    0.0008976102267240    0.0008976102267242 Fe
   0.0008976102267241    0.4992709836189160    0.0008976102267243 Fe
   0.0008976102267240    0.0008976102267239    0.4992709836189163 Fe
   0.8470239603574311    0.3359299329196096    0.3359299329196097 Fe
   0.3359299329196097    0.8470239603574313    0.3359299329196096 Fe
   0.3359299329196097    0.3359299329196096    0.8470239603574315 Fe
   0.1529187819110491    0.6634800913947599    0.6634800913947602 Fe
   0.6634800913947598    0.1529187819110490    0.6634800913947599 Fe
   0.6634800913947598    0.6634800913947601    0.1529187819110491 Fe
   0.0908189659588936    0.0908189659588936    0.0908189659588936 Fe
   0.9096449061477939    0.9096449061477946    0.9096449061477941 Fe
