Zn4 Cu2 N4
1.0
   3.2629968947733059    0.0000000057670731    1.3113786673773782
   0.9969534027709750    5.3797828808129369    2.2345743645157348
  -0.8517144124591007   -0.1819079542355000    6.8344620549824686
Zn Cu N
4 2 4
direct
   0.6532737173628113    0.1889773098350336    0.5044762554136216 Zn
   0.3467262826371885    0.8110226901649665    0.4955237445863784 Zn
   0.0879105461569414    0.6022941196724537    0.2218847880172709 Zn
   0.9120894538430586    0.3977058803275461    0.7781152119827293 Zn
   0.3696660491445878    0.1609936825158001    0.0996752191724715 Cu
   0.6303339508554124    0.8390063174842002    0.9003247808275286 Cu
   0.1990315788218587    0.2416992391787200    0.3602376031651888 N
   0.8009684211781414    0.7583007608212801    0.6397623968348111 N
   0.4846463297084415    0.2245658768988252    0.8061404636607127 N
   0.5153536702915585    0.7754341231011749    0.1938595363392877 N
