Mg4 Mn4 O8
1.0
   3.0392953658096431    0.2638215600956114   -0.2712853600852275
  -0.7419734308967365    7.4098957532138225   -1.0836538131759434
  -2.2600072608877966   -1.6184373680927213    7.6676986368962323
Mg Mn O
4 4 8
direct
   0.5621684551995425    0.9483496759912833    0.8006244113754434 Mg
   0.4297352552825575    0.0728670397498574    0.1681025017529301 Mg
   0.1855144551729861    0.3213346895133788    0.9239248848746022 Mg
   0.8064204567808555    0.6998715419580251    0.0448076393165770 Mg
   0.6805390240522623    0.8253012427835212    0.4189509936190347 Mn
  -0.0613087197589294    0.5737356095894585    0.6770937552441803 Mn
   0.0532612176436988    0.4474695829722435    0.2916340399004484 Mn
   0.3113569707964812    0.1959071074031157    0.5497719158304126 Mn
   0.6759119411534449    0.3153052782631476    0.4142902583088248 O
   0.4210885616742866    0.5734675468397269    0.1594818771072515 O
   0.5708645965384345    0.4477359884142154    0.8092474167521689 O
   0.3160029412932041    0.7059017146842629    0.5544399826738119 O
   0.0446731763665182    0.9471171118927113    0.2830740098919345 O
   0.1885679798719642    0.8283929808777448    0.9269814621468088 O
  -0.0527856133946312    0.0740893915274398    0.6856524465194797 O
  -0.1966416986726768    0.1928114975398824    0.0417404046860948 O
