Li2 Co1 Ni3 O8
1.0
   4.9318133238222144    0.0031142204552869    2.8069830120180983
   1.6336237757215870    4.6533929254680935    2.8069830120180996
   0.0043908878431594    0.0031142177296986    5.6746730086593518
Li Co Ni O
2 1 3 8
direct
   0.8763329047532235    0.8763329047532235    0.8763329047532491 Li
   0.1236670952467766    0.1236670952467766    0.1236670952467507 Li
   0.5000000000000000    0.5000000000000002    0.4999999999999999 Co
   0.5000000000000000    0.0000000000000000    0.5000000000000000 Ni
  -0.0000000000000000    0.5000000000000001    0.5000000000000000 Ni
   0.4999999999999999    0.5000000000000001    0.0000000000000000 Ni
   0.2913089230636458    0.7349217496391931    0.7349217496373900 O
   0.7349217496391929    0.2913089230636459    0.7349217496373900 O
   0.2629314056014539    0.2629314056014539    0.2629314056015530 O
   0.7349217496373887    0.7349217496373889    0.2913089230655282 O
   0.2650782503626113    0.2650782503626113    0.7086910769344720 O
   0.7370685943985463    0.7370685943985462    0.7370685943984469 O
   0.2650782503608072    0.7086910769363545    0.2650782503626096 O
   0.7086910769363544    0.2650782503608071    0.2650782503626096 O
