Be1 Fe1 Pt2
1.0
 -10.2443408832521428    2.0441784076963367   -2.0634371230270774
  -7.2202332689776156    0.4122656183039254    0.6943911320986593
  -6.2221647504266944    3.5784695180534301   -1.1242445646399755
Be Fe Pt
1 1 2
direct
   1.0000112247418891    0.9999884727627861    0.9999882223366976 Be
   0.4999975244009827    0.0000025824739982    1.0000023327496905 Fe
   0.7013414560644682    0.0324376828003578    0.0324412616999258 Pt
   0.2986497947926662    0.9675712619628510    0.9675671832136833 Pt
