Ba1 Nb1 Cr2
1.0
   4.7722003493379619    0.0000000000000000    0.0000000000000000
   0.0000000000000000    4.7722003493379619   -0.0000000000000000
   0.0000000000000000    0.0000000000000000    3.2037844650166702
Ba Nb Cr
1 1 2
direct
   0.5000000000000000    0.5000000000000000    0.5000000000000000 Ba
   0.0000000000000000    0.0000000000000000    0.5000000000000000 Nb
   0.0000000000000000    0.5000000000000000    0.0000000000000000 Cr
   0.5000000000000000    0.0000000000000000    0.0000000000000000 Cr
