K4 B2 C6 N6
1.0
   0.0000000000000000    5.3330679204453979    6.6222759526938475
   4.4891972523446917    0.0000000000000000    6.6222759526938475
   4.4891972523446917    5.3330679204453979    0.0000000000000000
K B C N
4 2 6 6
direct
   0.2042197788235262    0.3846083856843063    0.6248242403570671 K
   0.3653916143156937    0.5457802211764733    0.9636514048648943 K
   0.1251757596429335    0.9636514048648943    0.5457802211764734 K
   0.7863485951351057    0.6248242403570671    0.3846083856843062 K
   0.7881212362955008    0.2118787637044988    0.2118787637044986 B
   0.5381212362955009    0.9618787637044991    0.9618787637044992 B
   0.9160941157128032    0.9719033389619749    0.2870670235648447 C
   0.7780966610380251    0.8339058842871968    0.9250644782396308 C
   0.4629329764351555    0.9250644782396307    0.8339058842871967 C
   0.3707419840041695    0.1292580159958304    0.1292580159958304 C
   0.6207419840041698    0.3792580159958305    0.3792580159958305 C
   0.8249355217603692    0.2870670235648446    0.9719033389619751 C
   0.9649436123275326    0.7315209758700301    0.9043860893956132 N
   0.4886058335341716    0.5113941664658282    0.5113941664658281 N
   0.2386058335341717    0.2613941664658285    0.2613941664658284 N
   0.8456139106043868    0.3508506775931766    0.7850563876724674 N
   0.0184790241299697    0.7850563876724674    0.3508506775931765 N
   0.3991493224068234    0.9043860893956133    0.7315209758700301 N
