Zr4 Sb4
1.0
   5.6936762091380224    0.0000000000000000    0.0000000000000000
  -0.0000000000000000    5.6936762091380224   -0.0000000000000000
  -0.0000000000000000   -0.0000000000000000    5.6936762091380224
Zr Sb
4 4
direct
   0.3560756870901711    0.8560756870901713    0.6439243129098288 Zr
   0.6439243129098288    0.3560756870901711    0.8560756870901713 Zr
   0.8560756870901713    0.6439243129098288    0.3560756870901711 Zr
   0.1439243129098289    0.1439243129098289    0.1439243129098289 Zr
   0.3424899527084680    0.6575100472915320    0.1575100472915320 Sb
   0.8424899527084680    0.8424899527084680    0.8424899527084680 Sb
   0.6575100472915320    0.1575100472915320    0.3424899527084680 Sb
   0.1575100472915320    0.3424899527084680    0.6575100472915320 Sb
