Dy10 Sb6
1.0
   4.4844536538947288   -7.7672938517370209    0.0000000000000000
   4.4844536538947288    7.7672938517370209    0.0000000000000000
  -0.0000000000000000    0.0000000000000000    6.2607958766708887
Dy Sb
10 6
direct
   0.3333327213172313    0.6666672786827686    0.0000000000000000 Dy
   0.6666672786827686    0.3333327213172313    0.5000000000000000 Dy
   0.6666672786827686    0.3333327213172313    0.0000000000000000 Dy
   0.3333327213172313    0.6666672786827686    0.5000000000000000 Dy
   0.2460056833038929    0.0000004638003974    0.2500000000000000 Dy
   0.0000004638003974    0.2460056833038929    0.2500000000000000 Dy
   0.7539917045621314    0.7539917045621314    0.2500000000000000 Dy
   0.7539943166961072    0.9999995361996028    0.7500000000000000 Dy
   0.9999995361996027    0.7539943166961073    0.7500000000000000 Dy
   0.2460082954378688    0.2460082954378688    0.7500000000000000 Dy
   0.6120237688920421    0.9999997834293258    0.2500000000000000 Sb
   0.9999997834293258    0.6120237688920421    0.2500000000000000 Sb
   0.3879770620406812    0.3879770620406812    0.2500000000000000 Sb
   0.3879762311079580    0.0000002165706743    0.7500000000000000 Sb
   0.0000002165706743    0.3879762311079580    0.7500000000000000 Sb
   0.6120229379593189    0.6120229379593189    0.7500000000000000 Sb
