Ca10 P6 Cl2 O24
1.0
   9.7239306109602239   -0.0000000099080807    0.0000000000000000
  -4.8619652968994655    8.4211704416831026   -0.0000000000000000
  -0.0000000000000000    0.0000000000000000    6.7045723218919475
Ca P Cl O
10 6 2 24
direct
   0.0137273285862484    0.7533310532682871    0.7500000000000001 Ca
   0.2603962753182754    0.0137273285864690    0.2500000000000000 Ca
   0.6666669999999968    0.3333330000000032    0.5042309080030487 Ca
   0.2466689467320269    0.2603962753181818    0.7500000000000001 Ca
   0.7533310532679733    0.7396037246818182    0.2500000000000000 Ca
   0.3333330000000032    0.6666669999999967    0.4957690919969516 Ca
   0.9862726714137515    0.2466689467317130    0.2500000000000000 Ca
   0.6666669999999968    0.3333330000000032    0.9957690919969514 Ca
   0.3333330000000032    0.6666669999999967    0.0042309080030485 Ca
   0.7396037246817246    0.9862726714135308    0.7500000000000001 Ca
   0.9674948417602240    0.5891500629253374    0.2500000000000000 P
   0.4108499370747357    0.3783457788349939    0.2500000000000000 P
   0.6216542211650364    0.0325051582396736    0.2500000000000000 P
   0.0325051582397763    0.4108499370746631    0.7500000000000001 P
   0.5891500629252645    0.6216542211650066    0.7500000000000001 P
   0.3783457788349637    0.9674948417603260    0.7500000000000001 P
   0.0000000000000000    0.0000000000000000    0.5000000000000000 Cl
   0.0000000000000000    0.0000000000000000    0.0000000000000000 Cl
   0.4036489623187183    0.5332779024821122    0.7500000000000001 O
   0.4667220975180130    0.8703700598365166    0.7500000000000001 O
   0.7314731989606231    0.0865387586089064    0.4358750127229390 O
   0.0865387586089976    0.3550655596482671    0.5641249872770615 O
   0.6449344403516251    0.7314731989606391    0.9358750127229386 O
   0.1474860918684265    0.6508574055128865    0.2500000000000000 O
   0.7314731989606231    0.0865387586089064    0.0641249872770612 O
   0.3550655596483748    0.2685268010393608    0.4358750127229390 O
   0.8703700598367342    0.4036489623186270    0.2500000000000000 O
   0.0865387586089976    0.3550655596482671    0.9358750127229386 O
   0.5963510376812815    0.4667220975178876    0.2500000000000000 O
   0.5332779024819871    0.1296299401634828    0.2500000000000000 O
   0.1296299401632661    0.5963510376813731    0.7500000000000001 O
   0.9134612413910025    0.6449344403517326    0.4358750127229390 O
   0.2685268010393771    0.9134612413910931    0.5641249872770615 O
   0.9134612413910025    0.6449344403517326    0.0641249872770612 O
   0.8525139081315736    0.3491425944871135    0.7500000000000001 O
   0.3550655596483748    0.2685268010393608    0.0641249872770612 O
   0.5033713136444896    0.8525139081314256    0.2500000000000000 O
   0.3491425944870841    0.4966286863556877    0.2500000000000000 O
   0.6449344403516251    0.7314731989606391    0.5641249872770615 O
   0.4966286863555104    0.1474860918685738    0.7500000000000001 O
   0.2685268010393771    0.9134612413910931    0.9358750127229386 O
   0.6508574055129160    0.5033713136443124    0.7500000000000001 O
