Pm2 Dy6
1.0
   7.1633148890567018    0.0000000000000000    0.0000000000000000
  -3.5816574445283509    6.2036125728711156    0.0000000000000000
  -0.0000000000000000   -0.0000000000000000    5.6582273711036679
Pm Dy
2 6
direct
   0.6666669999999967    0.3333330000000032    0.2500000000000000 Pm
   0.3333330000000033    0.6666669999999968    0.7500000000000000 Pm
   0.8341212576151026    0.1658787423849076    0.7500000000000000 Dy
   0.3317574847698123    0.1658787423849076    0.7500000000000000 Dy
   0.8341212576150926    0.6682425152301776    0.7500000000000000 Dy
   0.1658787423848977    0.8341212576150926    0.2500000000000000 Dy
   0.6682425152301876    0.8341212576150926    0.2500000000000000 Dy
   0.1658787423849076    0.3317574847698223    0.2500000000000000 Dy
