Nd1 Pb3
1.0
   4.9261468533313382   -0.0000000000000000    0.0000000000000000
   0.0000000000000000    4.9261468533313382   -0.0000000000000000
   0.0000000000000000   -0.0000000000000000    4.9261468533313382
Nd Pb
1 3
direct
   0.0000000000000000    0.5000000000000000    0.0000000000000000 Nd
   0.0000000000000000    0.0000000000000000    0.5000000000000000 Pb
   0.5000000000000000    0.5000000000000000    0.5000000000000000 Pb
   0.5000000000000000    0.0000000000000000    0.0000000000000000 Pb
