V2 P4 O14
1.0
   4.4223637016931248    0.0000000073470192    0.9375447689878605
   0.0000001730730629    7.7669361715540131   -0.0000041336075827
   0.0619855864125031    0.0000000689922551    6.5417047911111448
V P O
2 4 14
direct
   0.0000009999923910    0.6122957470705465    0.4999980000009356 V
  -0.0000000000074840    0.1122973516173449    0.0000000000009626 V
   0.4103455187046704    0.4648059409254597    0.7991338845855461 P
   0.4103462514659156    0.9648050311223172    0.2991333420875014 P
   0.5896554813023558    0.4648059409308126    0.2008651154184777 P
   0.5896537485413809    0.9648050311277437    0.7008676579165056 P
   0.7316802817663128    0.7902437028257272    0.6366968055271757 O
   0.7316823376620674    0.2902440537057727    0.1366968567093267 O
   0.1863293207015421    0.0922399745073364    0.2362521440820376 O
   0.1863316751686168    0.5922387729108118    0.7362542352289929 O
   0.8136696793087362    0.0922399745257320    0.7637478559176331 O
   0.8136683248419551    0.5922397729291967    0.2637467647709283 O
   0.7056848664109380    0.9436629497927529    0.1344949143397529 O
   0.2943162744693875    0.4436639067711894    0.3655057518162365 O
   0.2683176623301832    0.2902440536987440    0.8633041432841368 O
   0.7056847255202642    0.4436639067748539    0.6344942481851719 O
   0.4999990000076918    0.0526843606295221    0.4999999999999904 O
   0.5000000000074822    0.5526858755261004    0.0000000000000013 O
   0.2943141335793110    0.9436629497892148    0.8655050856619508 O
   0.2683197182262665    0.7902447028188175    0.3633021944667381 O
