Na4 Zn6 Se8
1.0
   2.8791075726194957   -5.5370915273024650   -0.0000000022885422
   5.9239074828956655   -0.4368272181703234    6.7708590351576694
  -3.0448018819027531   -5.1002632223057534    6.7708590376951685
Na Zn Se
4 6 8
direct
   0.7411208879426785    0.6233683093034641    0.3766316906961142 Na
   0.2588791120573217    0.3766316906965362    0.6233683093038861 Na
   0.7588791120550028    0.1233683093013656    0.8766316906984849 Na
   0.2411208879449973    0.8766316906986347    0.1233683093015153 Na
   0.7500000000172927    0.4612714195227692    0.0387285804771024 Zn
   0.2499999999827072    0.5387285804772310    0.9612714195228972 Zn
   0.7499999999827075    0.0387285804772309    0.4612714195228977 Zn
   0.2500000000000000    0.2500000000000001    0.2500000000000000 Zn
   0.7500000000000002    0.7500000000000001    0.7500000000000001 Zn
   0.2500000000172931    0.9612714195227692    0.5387285804771027 Zn
   0.0945983473468992    0.7663251808069130    0.5061161865980602 Se
   0.5945983473494386    0.0061161866063153    0.2663251807975487 Se
   0.1329602852519149    0.2663251808024766    0.0061161866031009 Se
   0.9054016526531006    0.2336748191930871    0.4938838134019395 Se
   0.3670397147455459    0.4938838133981210    0.2336748191974108 Se
   0.4054016526505616    0.9938838133936853    0.7336748192024514 Se
   0.8670397147480853    0.7336748191975236    0.9938838133968991 Se
   0.6329602852544540    0.5061161866018790    0.7663251808025896 Se
