Ba4 Tb1 Ru3 O12
1.0
   9.9392414985056057   -2.9565083468056184   -0.0046443047742264
   9.9392414985056057    2.9565083468056184   -0.0046443047742264
   9.0621614533091925   -0.0000000000000000    5.0405073687151054
Tb Ba Ru O
1 4 3 12
direct
   0.0000000000000000    0.0000000000000000    0.0000000000000000 Tb
   0.2852286825215422    0.2852286825215422    0.2852286825215420 Ba
   0.8704531157158902    0.8704531157158902    0.8704531157158901 Ba
   0.1295468842841098    0.1295468842841098    0.1295468842841098 Ba
   0.7147713174784581    0.7147713174784581    0.7147713174784579 Ba
   0.5862940498117282    0.5862940498117282    0.5862940498117281 Ru
   0.5000000000000001    0.5000000000000001    0.4999999999999999 Ru
   0.4137059501882649    0.4137059501882649    0.4137059501882648 Ru
   0.3085591954918267    0.7798746377411128    0.7798746377411125 O
   0.7798746377411127    0.7798746377411127    0.3085591954918265 O
   0.7798746377411125    0.3085591954918267    0.7798746377411125 O
   0.2201253622588877    0.2201253622588877    0.6914408045081734 O
   0.6914408045081735    0.2201253622588877    0.2201253622588876 O
   0.6135775234423978    0.6135775234423978    0.1465604896868530 O
   0.6135775234423980    0.1465604896868532    0.6135775234423978 O
   0.3864224765576024    0.3864224765576024    0.8534395103131466 O
   0.8534395103131469    0.3864224765576023    0.3864224765576021 O
   0.3864224765576023    0.8534395103131469    0.3864224765576021 O
   0.2201253622588878    0.6914408045081736    0.2201253622588876 O
   0.1465604896868532    0.6135775234423980    0.6135775234423978 O
