Nd1 Si3 Ir1
1.0
   4.2897297757404251   -0.0000000000000001    0.0000000005993998
  -0.0000000000000001    4.2897297757404251    0.0000000005993998
  -2.1448653903389250   -2.1448653903389250    4.9344457631048719
Nd Si Ir
1 3 1
direct
   0.9992939474480966    0.9992939474480966    0.9985878948964859 Nd
   0.4140471758470853    0.4140471758470853    0.8280943516947495 Si
   0.7630496367571301    0.2630496367571300    0.5260982735144137 Si
   0.2630496367571300    0.7630496367571301    0.5260982735144137 Si
   0.6545606031905559    0.6545606031905559    0.3091202063799352 Ir
