Mg2 Zn6
1.0
   5.8231631080539135   -0.0000000000000000   -0.0000000000000000
  -2.9115815540269567    5.0430084887245945    0.0000000000000000
   0.0000000000000000   -0.0000000000000000    4.4433739140389124
Mg Zn
2 6
direct
   0.6666669999999968    0.3333330000000032    0.7500000000000000 Mg
   0.3333330000000032    0.6666669999999968    0.2500000000000000 Mg
   0.6771374373650654    0.8385692186878664    0.7500000000000000 Zn
   0.1614307813121339    0.3228625626242653    0.7500000000000000 Zn
   0.1614307813228032    0.8385692186878664    0.7500000000000000 Zn
   0.8385692186878663    0.6771374373757348    0.2500000000000000 Zn
   0.8385692186771969    0.1614307813121339    0.2500000000000000 Zn
   0.3228625626349345    0.1614307813121339    0.2500000000000000 Zn
