Na2 Al1 Hg1 Cl6
1.0
   6.2947659308075110   -0.0000000000000000    3.6342848046374026
   2.0982553102691703    5.9347622342080548    3.6342848046374026
  -0.0000000000000000   -0.0000000000000000    7.2685696092748033
Na Al Hg Cl
2 1 1 6
direct
   0.7500000000000000    0.7500000000000000    0.7500000000000001 Na
   0.2500000000000000    0.2500000000000000    0.2500000000000001 Na
   0.0000000000000000    0.0000000000000000    0.0000000000000000 Al
   0.5000000000000000    0.5000000000000000    0.5000000000000001 Hg
   0.7728596638681088    0.2271403361318912    0.2271403361318913 Cl
   0.2271403361318912    0.2271403361318912    0.7728596638681090 Cl
   0.2271403361318912    0.7728596638681089    0.7728596638681090 Cl
   0.2271403361318912    0.7728596638681089    0.2271403361318913 Cl
   0.7728596638681088    0.2271403361318912    0.7728596638681090 Cl
   0.7728596638681089    0.7728596638681089    0.2271403361318913 Cl
