Au4 Br4
1.0
   6.0246840413257017    0.1176118923592001   -3.1211072891013547
  -3.8263488409160749    5.5782403116136843   -0.5424460352631884
   0.0806747418614240   -0.1176119176955792    6.7846597136693729
Au Br
4 4
direct
   0.0000000000000000    0.0000000000000000    0.5000000000000000 Au
   0.0000000000000000    0.0000000000000000    0.0000000000000000 Au
   0.5000000000000000    0.4999999999999999    0.0000000000000000 Au
   0.5000000000000000   -0.0000000000000000    0.0000000000000000 Au
   0.7499999999963879    0.5664020484403028    0.8164020484332293 Br
   0.2499999999963879    0.8164020484403028    0.5664020484332293 Br
   0.2500000000036119    0.4335979515596970    0.1835979515667707 Br
   0.7500000000036123    0.1835979515596969    0.4335979515667708 Br
