Rb1 B11
1.0
   4.2731411643878277    0.7446775646844666    2.7179147969675559
   1.7242511485091232    6.7855542969876561    3.1066340741926548
   0.0460260439110560    0.7446774202407309    5.0640572419223524
Rb B
1 11
direct
   0.0094772637525032    0.5594552848176951    0.0094772644622350 Rb
   0.0182277676892225    0.0316920311327129    0.6584074682807034 B
   0.6584074686065753    0.0316920307341123    0.0182277674654839 B
   0.3561359658721500    0.0086021961565164   -0.0009160358104592 B
  -0.0105818968202639    0.2099030266197524   -0.0105818964110047 B
  -0.0009160357039875    0.0086021961198605    0.3561359658298219 B
   0.1709976241647716    0.8129466250182007    0.1709976237538323 B
   0.2407231903770323    0.1735199818033168    0.6050532384800545 B
   0.6050532382055624    0.1735199818734773    0.2407231905228351 B
   0.4084747081018991    0.8698299663543909    0.7541754648484383 B
   0.7898252405472519    0.2504067134426505    0.7898252409044075 B
   0.7541754652072824    0.8698299659273142    0.4084747076736516 B
