Li2 V4 Ni2 O12
1.0
   6.2738864669858811    0.2924155859571608    1.5566723552642630
   0.6269182918923649    6.2493305026082622    1.5566723552642630
  -0.3007731626261439   -0.2851235078957466    5.9322539045548339
Li V Ni O
2 4 2 12
direct
   0.7024597546675062    0.2975402453324933    0.7500000000000001 Li
   0.2975402453324932    0.7024597546675064    0.2500000000000001 Li
   0.8002078806126625    0.5985426874574392    0.2812250077762705 V
   0.5985426874574392    0.8002078806126626    0.7812250077762709 V
   0.4014573125425606    0.1997921193873373    0.2187749922237298 V
   0.1997921193873373    0.4014573125425607    0.7187749922237292 V
   0.9464546338853757    0.0535453661146242    0.2500000000000001 Ni
   0.0535453661146242    0.9464546338853758    0.7500000000000000 Ni
   0.2447602367592381    0.0056951750657445    0.2859577902883051 O
   0.3914950752682508    0.3349059841137997    0.9222011455254060 O
   0.3446871442373997    0.9202626280737914    0.7763211601742125 O
   0.3349059841137997    0.3914950752682508    0.4222011455254057 O
   0.6650940158862000    0.6085049247317490    0.5777988544745942 O
   0.9202626280737913    0.3446871442373997    0.2763211601742120 O
   0.6085049247317489    0.6650940158862003    0.0777988544745944 O
   0.7552397632407620    0.9943048249342558    0.7140422097116950 O
   0.0797373719262086    0.6553128557626008    0.7236788398257876 O
   0.9943048249342556    0.7552397632407624    0.2140422097116946 O
   0.6553128557626006    0.0797373719262086    0.2236788398257880 O
   0.0056951750657445    0.2447602367592382    0.7859577902883053 O
