Li2 Ce2 Sn4
1.0
   4.3768348719214965   -0.0000000000000000   -1.0767671728217874
  -0.0000000000000000    4.5451826728318707   -0.0000000000000000
   0.0666717740040874    0.0000000000000000    9.7048514785840005
Li Ce Sn
2 2 4
direct
   0.6767849767675231    0.2500000000000000    0.3535699535350463 Li
   0.3232150232324840    0.7500000000000000    0.6464300464649537 Li
   0.1062976077580123    0.7500000000000000    0.2125942155160270 Ce
   0.8937023922419877    0.2500000000000000    0.7874057844839729 Ce
   0.7496194224667153    0.7500000000000000    0.4992388449334372 Sn
   0.2503805775332850    0.2500000000000000    0.5007611550665626 Sn
   0.5450146783708258    0.2500000000000000    0.0900293567416374 Sn
   0.4549853216291743    0.7500000000000000    0.9099706432583626 Sn
