Er8 Al4 Ge12
1.0
   4.1550037081285645   -0.0000000000000000    0.0000000000000003
   0.0000000000000011    6.7798112765781076    0.0000000000000004
  -0.0000000000000000   -0.0000000000000000   17.5965368928857302
Er Al Ge
8 4 12
direct
   0.2500000000000000    0.6671408591910059    0.7041804516407389 Er
   0.7500000000000000    0.3328591408089944    0.2958195483592611 Er
   0.7500000000000000    0.8328591408089944    0.2041804516407390 Er
   0.2500000000000000    0.1671408591910058    0.7958195483592611 Er
   0.2500000000000000    0.6674208133867899    0.9137496021388882 Er
   0.7500000000000000    0.3325791866132100    0.0862503978611117 Er
   0.7500000000000000    0.8325791866132103    0.4137496021388882 Er
   0.2500000000000000    0.1674208133867900    0.5862503978611119 Er
   0.7500000000000000    0.5509036959990207    0.5642012813990852 Al
   0.2500000000000000    0.4490963040009793    0.4357987186009149 Al
   0.2500000000000000    0.9490963040009796    0.0642012813990852 Al
   0.7500000000000000    0.0509036959990207    0.9357987186009148 Al
   0.7500000000000000    0.8559470706179833    0.8123086547326622 Ge
   0.2500000000000000    0.7535795472638031    0.5334612666808533 Ge
   0.7500000000000000    0.2464204527361971    0.4665387333191470 Ge
   0.7500000000000000    0.7464204527361972    0.0334612666808531 Ge
   0.2500000000000000    0.2535795472638029    0.9665387333191469 Ge
   0.2500000000000000    0.5402678471522654    0.1715353217605298 Ge
   0.7500000000000000    0.4597321528477347    0.8284646782394700 Ge
   0.7500000000000000    0.9597321528477347    0.6715353217605300 Ge
   0.2500000000000000    0.0402678471522654    0.3284646782394703 Ge
   0.2500000000000000    0.6440529293820170    0.3123086547326621 Ge
   0.7500000000000000    0.3559470706179830    0.6876913452673378 Ge
   0.2500000000000000    0.1440529293820171    0.1876913452673378 Ge
