Ge3 F1
1.0
  -2.2748453653878968    2.2748453653878968    3.2173641733533227
   2.2748453653878968   -2.2748453653878968    3.2173641733533227
   2.2748453653878968    2.2748453653878968   -3.2173641733533227
Ge F
3 1
direct
   0.7500000000000001    0.2499990000000025    0.5000000000000000 Ge
   0.2499990000000026    0.7500000000000000    0.5000000000000000 Ge
   0.5000000000000000    0.5000000000000000    0.0000000000000000 Ge
   0.0000000000000000    0.0000000000000000    0.0000000000000000 F
