Mn1 Sb1 O4
1.0
   4.6956747633703353    0.0000000000000000   -0.0143141582573870
   0.0000000000000000    3.0897257816789829    0.0000000000000000
  -2.0178328629281075    0.0000000000000000    4.9178563855495110
Mn Sb O
1 1 4
direct
   0.5000004768039829    0.5000003311168157   -0.0000000000000000 Mn
   0.4999997443381829    0.0000000000000000    0.4999995128244308 Sb
   0.7180521101033450    0.0000000000000000    0.2276438219969397 O
   0.7260720716203706    0.5000003311168157    0.7624306336009116 O
   0.2819473785730284    0.0000000000000000    0.7723552036519218 O
   0.2739274170691046    0.5000003311168157    0.2375683920264277 O
