Ba1 Zn1 F2
1.0
   4.5830429148793712    0.0000000000000000   -0.0000000000000000
  -0.0000000000000000    4.5830429148793712    0.0000000000000000
  -0.0000000000000000   -0.0000000000000000    3.5972533375483819
Ba Zn F
1 1 2
direct
   0.0000000000000000    0.0000000000000000    0.5000000535947677 Ba
   0.5000000005593463    0.5000000005593463    0.5000000535947677 Zn
   0.5000000005593463    0.0000000000000000    0.0000000000000000 F
   0.0000000000000000    0.5000000005593463    0.0000000000000000 F
