Sr1 Ca1 I4
1.0
   6.9626645810982977    0.0000000000000000    0.0581920653787818
   0.0000000000000000    4.5994434772194452    0.0000000000000000
  -0.0991387900050145    0.0000000000000000    8.0081186801385922
Sr Ca I
1 1 4
direct
   0.0000000523691597    0.4999998677113808    0.4999998151845871 Sr
   0.0000000000000000    0.0000000000000000    0.0000000000000000 Ca
   0.7368395418118621    0.0000000000000000    0.6787203014320320 I
   0.7459311208770870    0.4999998677113808    0.1548112390180127 I
   0.2540683145735597    0.4999998677113808    0.8451883913511689 I
   0.2631598936384794    0.0000000000000000    0.3212793289246018 I
