Co1 H8 S2 N4 O8
1.0
   4.8553960099723232   -0.0522150972373157   -1.7233907088465013
  -0.8248453711636806    5.8079360935585100    0.7155621901190981
  -0.2129604244559583    0.4480749449560814    7.3094684774221754
Co H S N O
1 8 2 4 8
direct
   0.5054844740129248    0.0053459966408483    0.9947775531723857 Co
   0.4035104300527447    0.7126233295056219    0.2619815838465463 H
   0.6074131553257383    0.2980320111805386    0.7275458354689823 H
   0.6878118477251082    0.9049381920407850    0.3713677049826891 H
   0.3230588317188570    0.1057522210033043    0.6181884370206906 H
   0.6710844966389546    0.4904710512184506    0.2140651267198089 H
   0.3399319025194317    0.5202246846394756    0.7755379668886982 H
   0.0388125189468225    0.3174210211833969    0.6782379234983081 H
   0.9721665283874291    0.6933181924735089    0.3113674479638163 H
   0.8450169833857799    0.8032549399062209    0.7784087414508032 S
   0.1659493879893196    0.2074443099596245    0.2111468320099805 S
   0.4116754233061631    0.2155650479997306    0.7268557042737696 N
   0.5992542734237434    0.7951148220914505    0.2627054261635011 N
   0.7655539628002372    0.6325082796580815    0.2869050482173173 N
   0.2454253979508188    0.3782015241458103    0.7026836943140291 N
   0.8191792623122691    0.0126652034064864    0.6301825675949959 O
   0.1249618451058401    0.8250889848849601    0.9430323799908061 O
   0.8860229412599941    0.1855794152841512    0.0465089987879519 O
   0.6189996211531722    0.7747295401692955    0.8720702674284058 O
   0.3919869616061751    0.2359557150731101    0.1175151550711040 O
   0.8109149401988492    0.5922551123950027    0.6903417012892323 O
   0.2000104007348768    0.4184598166985710    0.2991854555578933 O
   0.1917744134447569   -0.0019514115584282    0.3593894482882912 O
