Yb1 Rh3 C1
1.0
   4.1184836532659128   -0.0000000000000000    0.0000000000000000
  -0.0000000000000000    4.1184836532659128   -0.0000000000000000
   0.0000000000000000   -0.0000000000000000    4.1184836532659128
Yb Rh C
1 3 1
direct
   0.0000000000000000    0.0000000000000000    0.0000000000000000 Yb
   0.0000000000000000    0.5000000000000000    0.5000000000000000 Rh
   0.5000000000000000    0.5000000000000000    0.0000000000000000 Rh
   0.5000000000000000    0.0000000000000000    0.5000000000000000 Rh
   0.5000000000000000    0.5000000000000000    0.5000000000000000 C
