K1 Mn1 Te2
1.0
   4.1064155975569401    0.0000000003737132   -1.1892297499826332
  -0.3444043678326049    4.0919477084096494   -1.1892297491438633
   0.0158256422930365    0.0172137596548042    7.7389973111402206
K Mn Te
1 1 2
direct
   0.0000000000000000    0.0000000000000000    0.0000000000000000 K
   0.7499999999999999    0.2500000000000000    0.5000000000000000 Mn
   0.3576845280918872    0.3576845280923452    0.7153700561844176 Te
   0.6423154719081128    0.6423154719076549    0.2846299438155824 Te
