Hf2 Mg6
1.0
   4.9559185606160963    0.0000000000000000   -0.0000000000000000
  -0.0000000000000000    4.9559185606160963    0.0000000000000000
  -0.0000000000000001   -0.0000000000000000    7.0158159721758500
Hf Mg
2 6
direct
   0.0000000000000000    0.0000000000000000    0.0000000000000000 Hf
   0.5000000000000000    0.5000000000000000    0.4999999999999999 Hf
   0.5000000000000000    0.5000000000000000    0.0000000000000000 Mg
   0.5000000000000000    0.0000000000000000    0.2500000000000000 Mg
   0.0000000000000000    0.5000000000000000    0.2500000000000000 Mg
   0.0000000000000000    0.0000000000000000    0.4999999999999999 Mg
   0.0000000000000000    0.5000000000000000    0.7500000000000000 Mg
   0.5000000000000000    0.0000000000000000    0.7500000000000000 Mg
