Tl1 Cd1 S2
1.0
   1.9628169085268803   -3.3996980384610223   -0.0000000000000000
   1.9628169085268803    3.3996980384610223    0.0000000000000000
   0.0000000000000000   -0.0000000000000000    6.9687195504431640
Tl Cd S
1 1 2
direct
   0.0000000000000000    0.0000000000000000    0.4999999999999999 Tl
   0.0000000000000000    0.0000000000000000    0.0000000000000000 Cd
   0.6666669999999968    0.3333330000000031    0.2201957220334272 S
   0.3333330000000033    0.6666669999999967    0.7798042779665729 S
