Sm1 Tl1 Ag2
1.0
   0.0000000000000000    3.5557146950042946    3.5557176344012684
   3.5557156748032970   -0.0000000000000000    3.5557176344012684
   3.5557156748032970    3.5557146950042946   -0.0000000000000000
Sm Tl Ag
1 1 2
direct
   0.2499990000000025    0.2499990000000025    0.2499990000000024 Sm
   0.7499990000000026    0.7499990000000026    0.7499990000000022 Tl
   0.5000000000000001    0.5000000000000001    0.4999999999999998 Ag
   0.0000000000000000    0.0000000000000000    0.0000000000000000 Ag
