Ce1 Al4
1.0
   3.9543201790893043    0.0000000015450919   -1.5688445129063640
  -0.6224259075560244    3.9050266117954342   -1.5688445125758268
   0.2567486045932525    0.3009124998284018    6.4150576029838176
Ce Al
1 4
direct
   0.0000000000000000    0.0000000000000000    0.0000000000000000 Ce
   0.2500000000000000    0.7500000000000001    0.5000000000000000 Al
   0.7500000000000000    0.2500000000000000    0.5000000000000000 Al
   0.3892355268016012    0.3892355268015664    0.7784710536032023 Al
   0.6107644731983989    0.6107644731984335    0.2215289463967978 Al
