Zr3 P3 Os3
1.0
   3.2358837388179955   -5.6046969137995584   -0.0000000000000000
   3.2358837388179955    5.6046969137995584   -0.0000000000000000
   0.0000000000000000    0.0000000000000000    3.8814400767802084
Zr P Os
3 3 3
direct
   0.5837953455963624    0.9999990341367666    0.5000000000000000 Zr
   0.9999990341367667    0.5837953455963623    0.5000000000000000 Zr
   0.4162055317671747    0.4162055317671746    0.5000000000000000 Zr
   0.3333321061152930    0.6666657044811471    0.0000000000000000 P
   0.6666657044811473    0.3333321061152930    0.0000000000000000 P
   0.0000030701349871    0.0000030701349871    0.5000000000000000 P
   0.2471431765731431    0.9999992049131393    0.0000000000000000 Os
   0.9999992049131394    0.2471431765731430    0.0000000000000000 Os
   0.7528568262819865    0.7528568262819864    0.0000000000000000 Os
