Sm4 Ni4 O12
1.0
   5.3056280320160516   -0.0000000000000000    0.0000000000000003
   0.0000000000000009    5.4805131643578120    0.0000000000000003
  -0.0000000000000000   -0.0000000000000000    7.5462952903972642
Sm Ni O
4 4 12
direct
   0.0133954916056916    0.9408605979608444    0.7500000000000001 Sm
   0.5133954916056912    0.5591394020391556    0.2500000000000000 Sm
   0.4866045083943084    0.4408605979608444    0.7500000000000001 Sm
   0.9866045083943088    0.0591394020391555    0.2500000000000000 Sm
   0.5000000000000000    0.0000000000000000    0.5000000000000000 Ni
   0.0000000000000000    0.5000000000000000    0.5000000000000000 Ni
   0.0000000000000000    0.5000000000000000    0.0000000000000000 Ni
   0.5000000000000000    0.0000000000000000    0.0000000000000000 Ni
   0.5817813216215010    0.0154017434079403    0.7500000000000001 O
   0.0817813216215007    0.4845982565920597    0.2500000000000000 O
   0.7051777570536959    0.2933122004365705    0.0429655513134329 O
   0.2051777570536958    0.2066877995634294    0.9570344486865673 O
   0.7948222429463042    0.7933122004365707    0.4570344486865671 O
   0.2051777570536958    0.2066877995634294    0.5429655513134329 O
   0.2948222429463042    0.7066877995634293    0.9570344486865673 O
   0.7948222429463042    0.7933122004365707    0.0429655513134329 O
   0.4182186783784995    0.9845982565920599    0.2500000000000000 O
   0.7051777570536959    0.2933122004365705    0.4570344486865671 O
   0.2948222429463042    0.7066877995634293    0.5429655513134329 O
   0.9182186783784992    0.5154017434079401    0.7500000000000001 O
