Bi2 Sb2 O6
1.0
  -2.9741904838173996    2.8155346708220561    5.5997009470990866
   0.0385101339203913    3.0648150953177811   -4.7293290219712452
  -2.9048215448130446   -2.0543459250912410   -4.9800605317772053
Bi Sb O
2 2 6
direct
   0.8787756593727126    0.1274880957119680    0.6064818145174484 Bi
   0.1212253406272844    0.8725119042880325    0.3935191854825489 Bi
   0.6177858142816760    0.3510267655940838    0.9176766042373541 Sb
   0.3822141857183239    0.6489742344059213    0.0823233957626458 Sb
   0.0473392315840976    0.7717827524600503    0.7401820690290506 O
   0.5040034509904876    0.9809838200147569    0.7962406575537891 O
   0.2480792267666887    0.4558163621750163    0.7508244670803473 O
   0.7519187732333159    0.5441836378249839    0.2491745329196480 O
   0.4959965490095121    0.0190151799852461    0.2037603424462082 O
   0.9526607684159024    0.2282162475399453    0.2598179309709494 O
