Yb4 Sb4 Pd4
1.0
   4.6558630089743538   -0.0000000000000000    0.0000000000000000
   0.0000000000000000    7.2614175029466415    0.0000000000000000
   0.0000000000000000    0.0000000000000000    7.9270096440925135
Yb Sb Pd
4 4 4
direct
   0.2500000000000000    0.4928017166876390    0.2067739892019425 Yb
   0.7500000000000000    0.5071982833123613    0.7932260107980571 Yb
   0.2500000000000000    0.9928017166876387    0.2932260107980574 Yb
   0.7500000000000000    0.0071982833123610    0.7067739892019429 Yb
   0.2500000000000000    0.2986072905053522    0.5916264294693451 Sb
   0.7500000000000000    0.2013927094946479    0.0916264294693450 Sb
   0.2500000000000000    0.7986072905053520    0.9083735705306549 Sb
   0.7500000000000000    0.7013927094946480    0.4083735705306550 Sb
   0.7500000000000000    0.3071921612177156    0.4196761911190762 Pd
   0.2500000000000000    0.1928078387822845    0.9196761911190758 Pd
   0.7500000000000000    0.8071921612177154    0.0803238088809240 Pd
   0.2500000000000000    0.6928078387822847    0.5803238088809242 Pd
