Tm4 Fe4 B16
1.0
   3.3567319583855211    0.0000000000000000    0.0000000000000002
   0.0000000000000009    5.8428914822348803    0.0000000000000004
   0.0000000000000000    0.0000000000000000   11.2983760199520766
Tm Fe B
4 4 16
direct
   0.5000000000000000    0.3729911460175476    0.1502249032654782 Tm
   0.5000000000000000    0.6270088539824523    0.8497750967345217 Tm
   0.5000000000000000    0.1270088539824525    0.6502249032654781 Tm
   0.5000000000000000    0.8729911460175476    0.3497750967345217 Tm
   0.5000000000000000    0.3662382310275599    0.4110741476042956 Fe
   0.5000000000000000    0.6337617689724402    0.5889258523957044 Fe
   0.5000000000000000    0.1337617689724401    0.9110741476042955 Fe
   0.5000000000000000    0.8662382310275598    0.0889258523957045 Fe
   0.0000000000000000    0.7839162068653442    0.6841575679405748 B
   0.0000000000000000    0.2160837931346558    0.3158424320594254 B
   0.0000000000000000    0.5245352117201230    0.3088857403050372 B
   0.0000000000000000    0.4754647882798768    0.6911142596949627 B
   0.0000000000000000    0.9754647882798770    0.8088857403050373 B
   0.0000000000000000    0.0245352117201232    0.1911142596949628 B
   0.0000000000000000    0.6381237081635618    0.0313912430302363 B
   0.0000000000000000    0.6118146760265470    0.4536207142793794 B
   0.0000000000000000    0.8618762918364383    0.5313912430302363 B
   0.0000000000000000    0.1381237081635618    0.4686087569697637 B
   0.0000000000000000    0.2839162068653441    0.8158424320594252 B
   0.0000000000000000    0.3881853239734533    0.5463792857206206 B
   0.0000000000000000    0.8881853239734530    0.9536207142793794 B
   0.0000000000000000    0.1118146760265468    0.0463792857206205 B
   0.0000000000000000    0.3618762918364383    0.9686087569697636 B
   0.0000000000000000    0.7160837931346558    0.1841575679405747 B
