Al1 H16 C10 Cl1 O4
1.0
   4.9486885478801446    0.0161463670049161    0.3094096334254896
   0.7549490454867018    6.6501982150647949    2.4831126852444498
   0.0034771398448423   -0.0809716730674971    8.8473012315334536
Al H C Cl O
1 16 10 1 4
direct
   0.9654111218018177    0.7105887551757718    0.9079611785796154 Al
   0.3006831855143537    0.2172632871590707    0.4182451383387102 H
   0.4650099960676750    0.5203168473227157    0.4433482968744368 H
   0.5529840321132753    0.3876787314810132    0.6447866108468303 H
   0.0300331178371917    0.3004917103228452    0.6659805843678407 H
  -0.0112604147701489    0.5245359835195467    0.5016069601262587 H
   0.6311860564423655    0.8216405428470630    0.2470804678235731 H
   0.3625753205772623    0.9731156823589011    0.3032299914942258 H
   0.3646611200727025    0.0816967094243778    0.6220448471051102 H
   0.6640891390335226    0.8161180802151849    0.5306792682786849 H
   0.8113427506183005    0.2470799274757560    0.3741798276027590 H
   0.8599299813590378    0.0958553321353646    0.5760917501211130 H
   0.3171926956347896    0.1224068281247227    0.9877476751214986 H
   0.5610124502239212    0.2915082246954362    0.8842698107248026 H
   0.5638944798155414    0.2817578709650416    0.1545330753709776 H
   0.8705796483285143    0.1462490884012575    0.1192120547975920 H
   0.9574137799496798    0.8865363720790660    0.4085138758148678 H
   0.5328482444132574    0.1460160328541258    0.9749268661069393 C
   0.6490173842063165    0.1420782602078515    0.1345741394446550 C
   0.7271881928585411    0.1270140217380027    0.4732036223220221 C
   0.7419502053173397    0.9360438378127890    0.4283572865994564 C
   0.5835948545237039    0.9598154265427561    0.2778709086008649 C
   0.4113327138153545    0.3975418465034876    0.5512862119592813 C
   0.4385542685541953    0.1992825778378625    0.5162336014886990 C
   0.0664747762183359    0.5538106635845236    0.7217953771979726 C
   0.6913266534797897    0.9849045948557584    0.9247258623405051 C
   0.1170210669229503    0.4416698439067278    0.6063673743132276 C
   0.1118727494326600    0.5501142843931589    0.1447421007836777 Cl
   0.2055208078309505    0.6903090699376145    0.7321516870037956 O
   0.9487606267011606   -0.0122023385979597    0.8849815295059482 O
   0.5970849627007517    0.8223131356669758    0.9314252106073440 O
   0.8657120324048830    0.5171597690531839    0.8242448083367114 O
