Yb2 Nd2 S6
1.0
  -0.0000000035448001   -3.9553823814478317    0.0000000000000000
  -6.8742265924845789    1.9776921792915765   -0.0000000000000000
   0.0000000000000000    0.0000000000000000   -8.8372146398887725
Yb Nd S
2 2 6
direct
   0.0004575911188269   -0.0000000000000695    0.7500000000000000 Yb
   0.9995424088811730    0.0000000000000695    0.2500000000000000 Yb
   0.2504512618962114    0.5009025237903930    0.5000000000000000 Nd
   0.7495487381037883    0.4990974762096070    0.0000000000000000 Nd
   0.3602297347826612    0.7197876890633634    0.8263272484121728 S
   0.3595579542821448    0.7197876890631371    0.1736727515878272 S
   0.6397702652173385    0.2802123109366366    0.3263272484121728 S
   0.6404420457178550    0.2802123109368632    0.6736727515878272 S
   0.8921940115581732    0.7843890231138709    0.5000000000000000 S
   0.1078059884418267    0.2156109768861292    0.0000000000000000 S
