Rb4 Ba4 P4 S16
1.0
   6.7425597002872095   -0.0000000000000000    0.0000000000000004
   0.0000000000000016   10.0969115441966046    0.0000000000000006
  -0.0000000000000000   -0.0000000000000000   11.5061803333355410
Rb Ba P S
4 4 4 16
direct
   0.2500000000000000    0.8450163705068950    0.9146870216513669 Rb
   0.2500000000000000    0.6549836294931050    0.4146870216513667 Rb
   0.7499999999999999    0.1549836294931048    0.0853129783486334 Rb
   0.7499999999999999    0.3450163705068952    0.5853129783486331 Rb
   0.2500000000000000    0.3961589133482983    0.8509557141004381 Ba
   0.2500000000000000    0.1038410866517018    0.3509557141004379 Ba
   0.7499999999999999    0.6038410866517017    0.1490442858995620 Ba
   0.7499999999999999    0.8961589133482983    0.6490442858995619 Ba
   0.7499999999999999    0.6081115287847073    0.8150194612205868 P
   0.7499999999999999    0.8918884712152928    0.3150194612205865 P
   0.2500000000000000    0.3918884712152931    0.1849805387794134 P
   0.2500000000000000    0.1081115287847070    0.6849805387794132 P
   0.2500000000000000    0.5666816249481063    0.0905081205027428 S
   0.2500000000000000    0.9333183750518939    0.5905081205027426 S
   0.7499999999999999    0.7745888234895192    0.9198691043227566 S
   0.7499999999999999    0.7254111765104808    0.4198691043227565 S
   0.2500000000000000    0.2254111765104804    0.0801308956772435 S
   0.2500000000000000    0.2745888234895196    0.5801308956772434 S
   0.4990375997920398    0.3829628717115943    0.2875627160789238 S
   0.0009624002079603    0.3829628717115943    0.2875627160789238 S
   0.9990375997920394    0.6170371282884056    0.7124372839210761 S
   0.5009624002079606    0.8829628717115943    0.2124372839210763 S
   0.5009624002079606    0.6170371282884056    0.7124372839210761 S
   0.9990375997920394    0.8829628717115943    0.2124372839210763 S
   0.7499999999999999    0.0666816249481059    0.4094918794972574 S
   0.4990375997920398    0.1170371282884057    0.7875627160789239 S
   0.0009624002079603    0.1170371282884057    0.7875627160789239 S
   0.7499999999999999    0.4333183750518942    0.9094918794972574 S
