Ca1 Be1 Sb2
1.0
  -2.1261544604002420    2.1261544604002420    5.2080646605230676
   2.1261544604002420   -2.1261544604002420    5.2080646605230676
   2.1261544604002420    2.1261544604002420   -5.2080646605230676
Ca Be Sb
1 1 2
direct
   0.7500000000000000    0.2500000000000000    0.5000000000000000 Ca
   0.5000000000000000    0.5000000000000000    0.0000000000000000 Be
   0.0000000000000000    0.0000000000000000    0.0000000000000000 Sb
   0.2500000000000000    0.7500000000000000    0.5000000000000000 Sb
