Be1 Pb1 Br4
1.0
   0.0000000000000000    4.4915361754752547    4.4915361754752547
   4.4915361754752547    0.0000000000000000    4.4915361754752547
   4.4915361754752547    4.4915361754752547   -0.0000000000000000
Be Pb Br
1 1 4
direct
   0.0000000000000000    0.0000000000000000    0.0000000000000000 Be
   0.2500000000000000    0.2500000000000000    0.2500000000000000 Pb
   0.1245935823617340    0.6251354725460888    0.6251354725460888 Br
   0.6251354725460887    0.6251354725460888    0.6251354725460888 Br
   0.6251354725460888    0.1245935823617341    0.6251354725460888 Br
   0.6251354725460888    0.6251354725460888    0.1245935823617341 Br
