Ho2 Ni4
1.0
   4.3619510319356145   -0.0000000000000000    2.5183733988182002
   1.4539836773118711    4.1124869853722270    2.5183733988182002
   0.0000000000000000    0.0000000000000000    5.0367467976364004
Ho Ni
2 4
direct
   0.1250000000000000    0.1250000000000000    0.1250000000000000 Ho
   0.8750000000000000    0.8750000000000000    0.8749999999999999 Ho
   0.5000000000000000    0.0000000000000000    0.5000000000000000 Ni
   0.0000000000000000    0.5000000000000000    0.5000000000000000 Ni
   0.5000000000000000    0.5000000000000000    0.5000000000000000 Ni
   0.5000000000000000    0.5000000000000000   -0.0000000000000000 Ni
