Sr2 Zn5 Si3
1.0
   4.2818237400174954    0.0000000000000000    0.0000000000000003
   0.0000000000000007    4.2818237400174954    0.0000000000000003
  -0.0000000000000000   -0.0000000000000000   10.6599285601858629
Sr Zn Si
2 5 3
direct
   0.0000000000000000    0.0000000000000000    0.9959418748714387 Sr
   0.5000000000000000    0.5000000000000000    0.5035212431603486 Sr
   0.0000000000000000    0.5000000000000000    0.2524634485752066 Zn
   0.5000000000000000    0.0000000000000000    0.7482314773348244 Zn
   0.5000000000000000    0.0000000000000000    0.2524634485752066 Zn
   0.0000000000000000    0.5000000000000000    0.7482314773348244 Zn
   0.5000000000000000    0.5000000000000000    0.1152797630438702 Zn
   0.0000000000000000    0.0000000000000000    0.6146061937152456 Si
   0.0000000000000000    0.0000000000000000    0.3875621686097587 Si
   0.5000000000000000    0.5000000000000000    0.8816999047792879 Si
