La4 Sc4 S12
1.0
   6.5596103688155916    0.0000000000000000    0.0000000000000000
   0.0000000000000000    7.2140325268968652    0.0000000000000000
   0.0000000000000000    0.0000000000000000    9.6219816982202921
La Sc S
4 4 12
direct
   0.0331743217594975    0.0948063109260132    0.9909442833685581 La
   0.9668256782405025    0.9051936890739868    0.4909442833685580 La
   0.4668256782405025    0.5948063109260131    0.9909442833685581 La
   0.5331743217594976    0.4051936890739868    0.4909442833685580 La
   0.5000259128782186    0.0000093550559201    0.7410189232096736 Sc
   0.4999740871217816   -0.0000093550559202    0.2410189232096736 Sc
   0.0000259128782186    0.4999906449440798    0.2410189232096736 Sc
  -0.0000259128782184    0.5000093550559201    0.7410189232096736 Sc
   0.3201019134724971    0.3112007290100161    0.1832532015461142 S
   0.1799275566102594    0.8111715007450337    0.7987636342005562 S
   0.1798980865275029    0.8112007290100161    0.1832532015461142 S
   0.8201019134724969    0.1887992709899838    0.6832532015461141 S
   0.3822107313745862    0.0308719162809835    0.4910199576750891 S
   0.6177892686254135    0.9691280837190163    0.9910199576750893 S
   0.1177892686254137    0.5308719162809837    0.4910199576750891 S
   0.8822107313745865    0.4691280837190165    0.9910199576750893 S
   0.6799275566102594    0.6888284992549663    0.2987636342005562 S
   0.3200724433897407    0.3111715007450337    0.7987636342005562 S
   0.8200724433897406    0.1888284992549662    0.2987636342005562 S
   0.6798980865275031    0.6887992709899839    0.6832532015461141 S
