Na2 Li2 S2
1.0
   4.0082863161622448    0.0000000000000000    0.0000000000000000
   0.0000000000000000    4.0082863161622448    0.0000000000000000
   0.0000000000000000    0.0000000000000000    6.5033289905054028
Na Li S
2 2 2
direct
   0.5000001690495210    0.0000000000000000    0.6478933752726344 Na
   0.0000000000000000    0.5000001690495210    0.3521063744638687 Na
   0.5000001690495210    0.5000001690495210    0.0000000000000000 Li
   0.0000000000000000    0.0000000000000000    0.0000000000000000 Li
   0.5000001690495210    0.0000000000000000    0.2174539688262218 S
   0.0000000000000000    0.5000001690495210    0.7825457809102813 S
