Li4 Mn2 Co2 O8
1.0
   4.9575566879049342   -0.0592743990722302   -0.1979266547514185
  -1.4856316158530709    4.7727285468805878   -0.1383808250748448
  -0.0209758770111612   -0.0226006069452737    5.8421098833992318
Li Mn Co O
4 2 2 8
direct
   0.7580185645575523    0.5013366197954341    0.1210201164248336 Li
   0.2667984725096478    0.5068477192786152    0.3593079826690408 Li
   0.7332015274903517    0.4931522807213852    0.6406920173309589 Li
   0.2419814354424478    0.4986633802045654    0.8789798835751667 Li
   0.7541568146649017    0.0108173386745920    0.3660523331026171 Mn
   0.2458431853350982    0.9891826613254082    0.6339476668973827 Mn
   0.7463392180737837    0.9948744259891165    0.8779521006263103 Co
   0.2536607819262168    0.0051255740108838    0.1220478993736896 Co
   0.9899295805367991    0.7642806829920038    0.8915817805905053 O
   0.5157813086928041    0.7846334301474522    0.1171981604207635 O
   0.0230845016005131    0.7886369966637953    0.3645047062699689 O
   0.4884649053549441    0.7555210247878058    0.6381174458865040 O
   0.5115350946450562    0.2444789752121943    0.3618825541134956 O
   0.9769154983994864    0.2113630033362051    0.6354952937300318 O
   0.4842186913071960    0.2153665698525476    0.8828018395792362 O
   0.0100704194632013    0.2357193170079966    0.1084182194094948 O
