V2 F4
1.0
   2.5596175737063711    0.0000000000000000    0.0000000000000000
   0.0000000000000000    5.1406747796938816   -0.0000000000000000
   0.0000000000000000    0.0000000000000000    5.1406747796938816
V F
2 4
direct
   0.5000000000000000    0.5000000000000000    0.5000000000000000 V
   0.0000000000000000    0.0000000000000000    0.0000000000000000 V
   0.0000000000000000    0.7204807659608902    0.7204807659608902 F
   0.5000000000000000    0.7795192340391098    0.2204807659608903 F
   0.0000000000000000    0.2795192340391097    0.2795192340391097 F
   0.5000000000000000    0.2204807659608903    0.7795192340391098 F
