Hf1 Al2 Zn1
1.0
   4.0790231736736162    0.0000000000000000    0.0000000000000000
  -0.0000000000000000    4.0790231736736162    0.0000000000000000
  -0.0000000000000000    0.0000000000000000    4.0307904191077633
Hf Al Zn
1 2 1
direct
   0.0000000000000000    0.0000000000000000    0.0000000000000000 Hf
   0.0000000000000000    0.5000000000000000    0.5000000000000000 Al
   0.5000000000000000    0.0000000000000000    0.5000000000000000 Al
   0.5000000000000000    0.5000000000000000    0.0000000000000000 Zn
