Li1 Be2 Au1
1.0
  -5.4241089660619650   -2.7420680868735765   -7.6097957770425309
  -3.2521620961886120   -1.9572646039453294   -1.0442268067650751
  -2.0884433465551511    1.3328681321759022   -3.0594666747807819
Li Be Au
1 2 1
direct
   0.0000000000054993   -0.0000000000093500    0.0000000000003442 Li
   0.7671292462001972   -0.0235200059088467   -0.0235269374746625 Be
   0.2328707538075536    0.0235200058989203    0.0235269374682797 Be
   0.4999999999867496    0.0000000000192763    0.0000000000060381 Au
