La1 Ce1 Rh4
1.0
   4.6728825710839761   -0.0000000000000000    2.6978900103068448
   1.5576275236946588    4.4056359382692118    2.6978900103068448
  -0.0000000000000000   -0.0000000000000000    5.3957800206136888
La Ce Rh
1 1 4
direct
   0.0000000000000000    0.0000000000000000    0.0000000000000000 La
   0.7499999999999999    0.7500000000000000    0.7499999999999999 Ce
   0.3751836643595167    0.3751836643595167    0.3751836643595165 Rh
   0.3751836643595167    0.8744500069214405    0.3751836643595166 Rh
   0.8744500069214405    0.3751836643595167    0.3751836643595166 Rh
   0.3751836643595167    0.3751836643595167    0.8744500069214405 Rh
