Ca2 Fe2 As2 F2
1.0
  -2.7426378700553644   -2.7429646268170451    0.0000000000000000
  -2.7426378700553644    2.7429646268170451   -0.0000000000000000
   0.0000000000000000   -0.0000000000000000   -8.2952050879227652
Ca Fe As F
2 2 2 2
direct
   0.2500000000000000    0.7500000000000000    0.1584300754754977 Ca
   0.7500000000000000    0.2500000000000000    0.8415699245245024 Ca
   0.2500000000000000    0.2500000000000000    0.5000000000000000 Fe
   0.7500000000000001    0.7500000000000001    0.5000000000000000 Fe
   0.2500000000000000    0.7500000000000000    0.6552054978454570 As
   0.7500000000000000    0.2500000000000000    0.3447945021545432 As
   0.2500000000000000    0.2500000000000000    0.0000000000000000 F
   0.7500000000000001    0.7500000000000001    0.0000000000000000 F
