Ce1 Ni5
1.0
   2.4399059676885906   -4.2260413121095599    0.0000000000000000
   2.4399059676885906    4.2260413121095599   -0.0000000000000000
   0.0000000000000000    0.0000000000000000    4.0008456768696101
Ce Ni
1 5
direct
   0.0000000000000000    0.0000000000000000    0.0000000000000000 Ce
   0.5000000000000000    0.4999999999999999    0.5000000000000000 Ni
   0.3333330000000032    0.6666669999999967    0.0000000000000000 Ni
   0.6666669999999968    0.3333330000000032    0.0000000000000000 Ni
   0.0000000000000000    0.4999999999999999    0.5000000000000000 Ni
   0.5000000000000000   -0.0000000000000000    0.5000000000000000 Ni
