Zr1 Zn2 Pt2
1.0
  -1.8023901419950734    1.8023901419950734    6.6210279366856337
   1.8023901419950734   -1.8023901419950734    6.6210279366856337
   1.8023901419950734    1.8023901419950734   -6.6210279366856337
Zr Zn Pt
1 2 2
direct
   0.0000000000000000    0.0000000000000000    0.0000000000000000 Zr
   0.7500000000000000    0.2500000000000000    0.5000000000000000 Zn
   0.2500000000000000    0.7500000000000000    0.5000000000000000 Zn
   0.3983195516489643    0.3983195516489643    0.0000000000000000 Pt
   0.6016804483510356    0.6016804483510356    0.0000000000000000 Pt
