Y1 Be2 Ni1
1.0
   2.9429816396284401    0.0000000000000000    0.0000000000000000
   0.0000000000000000    2.9429816396284401   -0.0000000000000000
   0.0000000000000000   -0.0000000000000000    6.3817061402789870
Y Be Ni
1 2 1
direct
   0.5000000000000000    0.5000000000000000    0.7395663199128769 Y
   0.0000000000000000    0.0000000000000000    0.0793834547721661 Be
   0.5000000000000000    0.5000000000000000    0.2570931782635517 Be
   0.0000000000000000    0.0000000000000000    0.4239570470514125 Ni
