Ta1 O7
1.0
   3.8016393678980469   -0.4473170104188670    1.4300482815803834
   0.8580474529107809    3.6445892972522858    1.8982853659929231
  -0.3353320055870280    0.0966879905488523    6.0290818040350578
Ta O
1 7
direct
  -0.1694654053040365    0.4252661937938378   -0.1217532910518975 Ta
   0.1747789204153518    0.0177495279043373    0.6325997559958143 O
   0.1819158373411958    0.8330663797185458    0.3058665693846284 O
   0.8852783390289667    0.7013350150200287    0.4277382649640851 O
   0.6140536346676699    0.3613249370885167    0.1858417236926088 O
   0.3024218825238860    0.6256196669042672    0.7695029053938808 O
   0.2052777805540241    0.0218503021977640    0.0361575336384485 O
   0.8057390107729405    0.0137879773726938    0.7640465379824242 O
