Cd1 Co2 As1
1.0
  -0.0000000000000000    3.1108826269490990    3.1108826269490990
   3.1108826269490990    0.0000000000000000    3.1108826269490990
   3.1108826269490990    3.1108826269490990   -0.0000000000000000
Cd Co As
1 2 1
direct
   0.7500000000000000    0.7500000000000000    0.7500000000000000 Cd
   0.0000000000000000    0.0000000000000000    0.0000000000000000 Co
   0.2500000000000000    0.2500000000000000    0.2500000000000000 Co
   0.5000000000000000    0.5000000000000000    0.5000000000000000 As
