Tc1 Sb5
1.0
   1.8451232651015708   -3.1958513409368421    0.0000000000000000
   1.8451232651015708    3.1958513409368421   -0.0000000000000000
   0.0000000000000000    0.0000000000000000   13.1956294586241789
Tc Sb
1 5
direct
   0.0000000000000000    0.0000000000000000    0.2499771836344707 Tc
   0.6666666666666643    0.3333333333333357    0.1198665143086294 Sb
   0.6666666666666643    0.3333333333333357    0.5822234016038353 Sb
   0.3333333333333357    0.6666666666666643    0.3801002968677931 Sb
   0.3333333333333357    0.6666666666666643    0.9177761818427524 Sb
   0.0000000000000000    0.0000000000000000    0.7500564217425201 Sb
