Mg1 Sc2 Tl1
1.0
   0.0000000000000000    3.5535303589869036    3.5535303589869036
   3.5535303589869036    0.0000000000000000    3.5535303589869036
   3.5535303589869036    3.5535303589869036   -0.0000000000000000
Mg Sc Tl
1 2 1
direct
   0.2500009999999975    0.2500009999999975    0.2500009999999975 Mg
   0.0000000000000000    0.0000000000000000    0.0000000000000000 Sc
   0.5000000000000000    0.5000000000000000    0.5000000000000000 Sc
   0.7500000000000000    0.7500000000000000    0.7500000000000000 Tl
