V1 Cd1 O3
1.0
   3.8037751429401889    0.0000000000000000   -0.0000000000000000
  -0.0000000000000000    3.8037751429401889   -0.0000000000000000
   0.0000000000000000    0.0000000000000000    3.8037751429401889
V Cd O
1 1 3
direct
   0.4999999999999999    0.4999999999999999    0.4999999999999999 V
   0.0000000000000000    0.0000000000000000    0.0000000000000000 Cd
   0.4999999999999999    0.4999999999999999    0.0000000000000000 O
   0.4999999999999999    0.0000000000000000    0.4999999999999999 O
   0.0000000000000000    0.4999999999999999    0.4999999999999999 O
