K1 Lu1 S2
1.0
  -1.9717229421309566   -3.4151242926569121   -0.0000000014090277
  -3.9434458842619131   -0.0000000000000000    0.0000000000000000
  -1.9717229421309566   -1.1383744362089652   -7.2718974786014501
K Lu S
1 1 2
direct
   0.0000000000000000    0.0000000000000000    0.0000000000000000 K
   0.4999999999999999    0.4999999999999999    0.5000000000000000 Lu
   0.7665493843548119    0.7665493843548895    0.7003518469354018 S
   0.2334506156451878    0.2334506156451104    0.2996481530645985 S
