Be2 Ga1 Fe1
1.0
   2.8684385487232582    0.0000000000000000   -0.0000000000000001
   0.0000000000000000    2.8684385487232582   -0.0000000000000000
  -0.0000000000000000   -0.0000000000000000    5.0380063166045961
Be Ga Fe
2 1 1
direct
   0.0000000000000000    0.0000000000000000    0.7962593311451474 Be
   0.0000000000000000    0.0000000000000000    0.2037406688548525 Be
   0.5000000000000000    0.5000000000000000    0.5000000000000000 Ga
   0.5000000000000000    0.5000000000000000    0.0000000000000000 Fe
