Sr6 Co4 O12
1.0
   6.5236342585177178   -0.0071547352099711   -0.3793640633219825
  -0.3625852748387219    6.5321476232877034   -0.3056260520690798
   0.0203360797000861   -0.0444813472911609    6.5341078878426417
Sr Co O
6 4 12
direct
   0.8808071871550114    0.2499227893483223    0.6191975499607255 Sr
   0.2506066194243037    0.6180225738169731    0.8818123324600313 Sr
   0.6180600146895525    0.8820598327335858    0.2494774123833815 Sr
   0.7482333589557296    0.3807385618206389    0.1194723089036743 Sr
   0.3807235685131058    0.1190788235450402    0.7517323216318438 Sr
   0.1202828038029830    0.7500286281172063    0.3797591937193129 Sr
   0.2457332183294899    0.2500462558696456    0.2542225417193768 Co
   0.7500563115756177    0.7494477631675616    0.7505110711331332 Co
   0.0004537628055959   -0.0005861593969402   -0.0004126331160470 Co
   0.5004299375287561    0.5006892809229230    0.4994407071360960 Co
   0.0915694699925861    0.2804808157570404    0.9662098312188958 O
   0.4775103233674770    0.7823184248406750    0.5923253904778065 O
   0.5924251777172194    0.4765350245633696    0.7818432020454482 O
   0.7826518747823528    0.5919446241387203    0.4766586527904554 O
   0.0230021912907390    0.9080430422487001    0.7173801036470433 O
   0.2185168726287278    0.4100816910911012    0.5340551350948378 O
   0.9073644334010762    0.7177362750976789    0.0220337320996446 O
   0.5339273637702326    0.2195303627672554    0.4085889265529000 O
   0.4122699596294380    0.5379877898121358    0.2184892983594835 O
   0.2813783832671243    0.9618564773685183    0.0877258935586957 O
   0.7181135471694295    0.0242691124842663    0.9079362010178160 O
   0.9658846202034562    0.0897680098855872    0.2815408272054434 O
