Sm1 Er1 Rh2
1.0
  -0.0000000000000000    3.4355181485839505    3.4355181485839505
   3.4355181485839505   -0.0000000000000000    3.4355181485839505
   3.4355181485839505    3.4355181485839505   -0.0000000000000000
Sm Er Rh
1 1 2
direct
   0.7499999999999999    0.7500000000000000    0.7500000000000000 Sm
   0.2500000000000000    0.2500000000000000    0.2500000000000000 Er
   0.0000000000000000    0.0000000000000000    0.0000000000000000 Rh
   0.5000009999999975    0.5000009999999975    0.5000009999999975 Rh
