Mg4 Mn4 F20
1.0
   0.0000000000000000    5.0172000134042394    0.0193490548017357
   9.4708272888670901    0.0000000000000000    0.0000000000000000
   0.0000000000000000   -2.6559273543772708   -7.3011346649929454
Mg Mn F
4 4 20
direct
   0.5254810780930876    0.0127283777007747    0.2199011040833171 Mg
   0.4745189219069122    0.5127283777007750    0.2800988959166828 Mg
   0.4745189219069122    0.9872716222992250    0.7800988959166830 Mg
   0.5254810780930876    0.4872716222992255    0.7199011040833171 Mg
   0.1118225507975493    0.7599414270945370    0.3720126972662853 Mn
   0.8881774492024507    0.2599414270945367    0.1279873027337151 Mn
   0.8881774492024508    0.2400585729054631    0.6279873027337154 Mn
   0.1118225507975494    0.7400585729054630    0.8720126972662847 Mn
   0.1310593431609555    0.1029043012058507    0.7529388336525999 F
   0.1925589798882908    0.1393693346731032    0.1534872403190746 F
   0.8074410201117094    0.6393693346731033    0.3465127596809253 F
   0.8071712040097353    0.1583737126941223    0.3594888788741162 F
   0.1925589798882908    0.3606306653268966    0.6534872403190741 F
   0.1928287959902650    0.6583737126941223    0.1405111211258842 F
   0.8689406568390441    0.6029043012058511    0.7470611663474002 F
   0.8074410201117094    0.8606306653268966    0.8465127596809260 F
   0.8689406568390440    0.8970956987941490    0.2470611663473999 F
   0.6385802418212494    0.1109362944975197    0.0097775945740256 F
   0.3614197581787513    0.8890637055024804    0.9902224054259746 F
   0.6385802418212494    0.3890637055024804    0.5097775945740255 F
   0.8071712040097353    0.3416262873058780    0.8594888788741163 F
   0.3614197581787513    0.6109362944975196    0.4902224054259745 F
   0.4159929789315490    0.6196042817378193    0.8795997085772953 F
   0.5840070210684508    0.1196042817378192    0.6204002914227048 F
   0.5840070210684508    0.3803957182621809    0.1204002914227044 F
   0.4159929789315489    0.8803957182621807    0.3795997085772956 F
   0.1310593431609555    0.3970956987941492    0.2529388336526000 F
   0.1928287959902651    0.8416262873058777    0.6405111211258838 F
