K2 Be1 Si1
1.0
   6.2299021438518478    0.0000000000000000    0.0000000000000000
   0.0000000000000000    6.2299021438518478    0.0000000000000000
   0.0000000000000000    0.0000000000000000    2.9358731810241361
K Be Si
2 1 1
direct
   0.5000000000000000    0.0000000000000000    0.0000000000000000 K
   0.0000000000000000    0.5000000000000000    0.0000000000000000 K
   0.0000000000000000    0.0000000000000000    0.5000000000000000 Be
   0.5000000000000000    0.5000000000000000    0.5000000000000000 Si
