Na18 Lu6 Si12 O42
1.0
   9.3847355233086276    0.0000000000252467   -0.0000000000000000
  -4.6923672687540163    8.1274188279375306    0.0000000000000000
   0.0000000000000000   -0.0000000000000000   13.6861054696861508
Na Lu Si O
18 6 12 42
direct
   0.3315511206122070    0.3165773090632185    0.9105282269385839 Na
   0.3333330000000032    0.6666669999999969    0.7500000000000001 Na
   0.0000000000000000    0.0000000000000000    0.5000000000000000 Na
   0.6666669999999968    0.3333330000000032    0.2500000000000000 Na
   0.3333330000000032    0.6666669999999969    0.2500000000000000 Na
   0.3165773090631795    0.9850261884510325    0.0894717730614156 Na
   0.6684488793877930    0.6834226909367818    0.4105282269385845 Na
   0.6834226909368205    0.0149738115489680    0.5894717730614162 Na
   0.0149738115490273    0.3315511206121866    0.0894717730614156 Na
   0.0000000000000000    0.0000000000000000    0.0000000000000000 Na
   0.6666669999999968    0.3333330000000032    0.7500000000000001 Na
   0.9850261884509728    0.6684488793878137    0.9105282269385839 Na
   0.6834226909368205    0.0149738115489680    0.9105282269385839 Na
   0.0149738115490273    0.3315511206121866    0.4105282269385845 Na
   0.6684488793877930    0.6834226909367818    0.0894717730614156 Na
   0.3315511206122070    0.3165773090632185    0.5894717730614162 Na
   0.3165773090631795    0.9850261884510325    0.4105282269385845 Na
   0.9850261884509728    0.6684488793878137    0.5894717730614162 Na
   0.0000000000000000    0.0000000000000000    0.7500000000000001 Lu
   0.3333330000000032    0.6666669999999969    0.4803701011319123 Lu
   0.3333330000000032    0.6666669999999969    0.0196298988680877 Lu
   0.0000000000000000    0.0000000000000000    0.2500000000000000 Lu
   0.6666669999999968    0.3333330000000032    0.9803701011319127 Lu
   0.6666669999999968    0.3333330000000032    0.5196298988680875 Lu
   0.3279979152660757    0.9812027916162189    0.6397806763684810 Si
   0.9812027916161898    0.6532058763501443    0.1397806763684810 Si
   0.6532058763501113    0.6720020847339279    0.8602193236315191 Si
   0.6720020847339246    0.0187972083837812    0.1397806763684810 Si
   0.3467941236498884    0.3279979152660719    0.3602193236315191 Si
   0.9812027916161898    0.6532058763501443    0.3602193236315191 Si
   0.3279979152660757    0.9812027916162189    0.8602193236315191 Si
   0.0187972083838104    0.3467941236498558    0.6397806763684810 Si
   0.6720020847339246    0.0187972083837812    0.3602193236315191 Si
   0.3467941236498884    0.3279979152660719    0.1397806763684810 Si
   0.6532058763501113    0.6720020847339279    0.6397806763684810 Si
   0.0187972083838104    0.3467941236498558    0.8602193236315191 Si
   0.1024956849000439    0.4222856280899592    0.7500000000000001 O
   0.1963166667494868    0.0474010800954755    0.8591108448304124 O
   0.8975043150999554    0.5777143719100409    0.2500000000000000 O
   0.8275158633300802    0.5573374345422492    0.0629658777194044 O
   0.0474010800957443    0.8510834133460488    0.3591108448304126 O
   0.5163399289507715    0.1276944011886024    0.6198119686152695 O
   0.9525989199042559    0.1489165866539508    0.6408891551695877 O
   0.5573374345423667    0.7298215712120220    0.5629658777194039 O
   0.4222856280899894    0.3197899431901238    0.2500000000000000 O
   0.1489165866537399    0.1963166667494288    0.3591108448304126 O
   0.3886455277621603    0.5163399289505293    0.3801880313847302 O
   0.8510834133462598    0.8036833332505713    0.6408891551695877 O
   0.6113544722378396    0.4836600710494709    0.8801880313847307 O
   0.3886455277621603    0.5163399289505293    0.1198119686152699 O
   0.1489165866537399    0.1963166667494288    0.1408891551695874 O
   0.9525989199042559    0.1489165866539508    0.8591108448304124 O
   0.3197899431899457    0.8975043151001647    0.7500000000000001 O
   0.7298215712122925    0.1724841366697670    0.4370341222805956 O
   0.1963166667494868    0.0474010800954755    0.6408891551695877 O
   0.8036833332505129    0.9525989199045246    0.1408891551695874 O
   0.7298215712122925    0.1724841366697670    0.0629658777194044 O
   0.4836600710492288    0.8723055988113971    0.3801880313847302 O
   0.1724841366699195    0.4426625654577516    0.5629658777194039 O
   0.8510834133462598    0.8036833332505713    0.8591108448304124 O
   0.2701784287877070    0.8275158633302333    0.5629658777194039 O
   0.4426625654576340    0.2701784287879775    0.0629658777194044 O
   0.1724841366699195    0.4426625654577516    0.9370341222805962 O
   0.6113544722378396    0.4836600710494709    0.6198119686152695 O
   0.2701784287877070    0.8275158633302333    0.9370341222805962 O
   0.8036833332505129    0.9525989199045246    0.3591108448304126 O
   0.8723055988113891    0.3886455277619270    0.8801880313847307 O
   0.6802100568100543    0.1024956848998350    0.2500000000000000 O
   0.8275158633300802    0.5573374345422492    0.4370341222805956 O
   0.8723055988113891    0.3886455277619270    0.6198119686152695 O
   0.5573374345423667    0.7298215712120220    0.9370341222805962 O
   0.5163399289507715    0.1276944011886024    0.8801880313847307 O
   0.0474010800957443    0.8510834133460488    0.1408891551695874 O
   0.5777143719100111    0.6802100568098759    0.7500000000000001 O
   0.1276944011886110    0.6113544722380728    0.3801880313847302 O
   0.4426625654576340    0.2701784287879775    0.4370341222805956 O
   0.4836600710492288    0.8723055988113971    0.1198119686152699 O
   0.1276944011886110    0.6113544722380728    0.1198119686152699 O
