Sm1 Er1 Mn4
1.0
   4.4370158286709440    0.0000000024351227    2.5617119940976059
   1.4790049474817282    4.1832584938103983    2.5617119940976059
  -0.0000000000000000   -0.0000000000000000    5.1234239881952117
Sm Er Mn
1 1 4
direct
   0.0000000000000000    0.0000000000000000    0.0000000000000000 Sm
   0.2500000000000000    0.2500000000000000    0.2500000000000000 Er
   0.6247300866445671    0.6247300866445019    0.1258087400665061 Mn
   0.6247300866446308    0.1258087400663751    0.6247300866445019 Mn
   0.1258087400662443    0.6247300866446308    0.6247300866445670 Mn
   0.6247300866445671    0.6247300866445019    0.6247300866444343 Mn
