Ca1 Mo1 F6
1.0
   4.8601580612255182    0.1535182825394395    3.3611148709139802
   1.8431492389841682    4.4997231226306083    3.3611149671268095
   0.2211540907353729    0.1535182365764719    5.9050253702000584
Ca Mo F
1 1 6
direct
   0.4999999999999999    0.5000000000000000    0.4999999999999999 Ca
   0.0000000000000000    0.0000000000000000    0.0000000000000000 Mo
   0.3722722363597272    0.0875261705946912    0.7714298381450163 F
   0.0875261706993327    0.7714298379224318    0.3722722364609227 F
   0.2285701619618651    0.6277277634220803    0.9124738295117697 F
   0.9124738293006673    0.2285701620775629    0.6277277635390711 F
   0.6277277636402665    0.9124738294053093    0.2285701618549782 F
   0.7714298380381293    0.3722722365779137    0.0875261704882235 F
