Rb2 Ni2 Br6
1.0
   3.6375768881014308   -6.3004677117027335    0.0000000000000000
   3.6375768881014308    6.3004677117027335   -0.0000000000000000
   0.0000000000000000    0.0000000000000000    6.1806214179858578
Rb Ni Br
2 2 6
direct
   0.6666669999999968    0.3333330000000032    0.2500000000000000 Rb
   0.3333330000000032    0.6666669999999968    0.7500000000000000 Rb
   0.0000000000000000    0.0000000000000000    0.5000000000000000 Ni
   0.0000000000000000    0.0000000000000000    0.0000000000000000 Ni
   0.6771842957114129    0.8385916478545206    0.2500000000000000 Br
   0.8385916478568953    0.1614083521431049    0.7500000000000000 Br
   0.1614083521431049    0.8385916478568953    0.2500000000000000 Br
   0.3228157042885870    0.1614083521454796    0.7500000000000000 Br
   0.8385916478545206    0.6771842957114129    0.7500000000000000 Br
   0.1614083521454796    0.3228157042885870    0.2500000000000000 Br
