Te4 Pb4
1.0
   4.6336681070000783   -0.0000000000000007    0.0000000000000000
   0.0000000000000001    4.6333726902101295    0.0000000000000000
   0.0000000000000000    0.0000000000000000   13.1042734342956280
Te Pb
4 4
direct
   0.7500000000000000    0.7495741511127871    0.3750064715682138 Te
   0.2500000000000000    0.2495741511127874    0.1249935284317861 Te
   0.2500000000000000    0.2504258488872127    0.6249935284317856 Te
   0.7500000000000000    0.7504258488872129    0.8750064715682143 Te
   0.7500000000000000    0.7494665437784760    0.1249917999360121 Pb
   0.2500000000000000    0.2494665437784759    0.3750082000639879 Pb
   0.2500000000000000    0.2505334562215243    0.8750082000639952 Pb
   0.7500000000000000    0.7505334562215240    0.6249917999360047 Pb
