Li2 Mn3 V1 O8
1.0
   5.7584713713094180   -0.0052386181353889   -0.0037046650651126
   2.8746983688814987    4.9896016767619802   -0.0037046719898598
   2.8746983796215364    1.6597081465024508    4.7054765951132334
Li Mn V O
2 3 1 8
direct
   0.1229413134861622    0.1229413134853582    0.1229413134854785 Li
   0.8770586865138378    0.8770586865146420    0.8770586865145219 Li
   0.0000000000000001    0.4999999999999999    0.4999999999999999 Mn
   0.5000000000000000    0.0000000000000000    0.4999999999999999 Mn
   0.4999999999999999    0.5000000000000000   -0.0000000000000000 Mn
   0.5000000000000001    0.5000000000000000    0.5000000000000000 V
   0.2624452050294702    0.2624452050430318    0.2624452050410030 O
   0.2580208813850998    0.2580208813932128    0.7159952941887875 O
   0.2580208814014984    0.7159952941712947    0.2580208813929131 O
   0.7159952941847185    0.2580208814034998    0.2580208813868021 O
   0.2840047058152815    0.7419791185964999    0.7419791186131980 O
   0.7419791185985020    0.2840047058287057    0.7419791186070868 O
   0.7419791186149000    0.7419791186067870    0.2840047058112131 O
   0.7375547949705301    0.7375547949569683    0.7375547949589972 O
