Tm2 Re4 Si2 C2
1.0
   5.8122499947530022   -0.0107513077834397    0.0000000000000004
  -4.4905437922338489    3.6901737143602582    0.0000000000000004
   0.0000000000000000   -0.0000000000000000    7.2642495831334255
Tm Re Si C
2 4 2 2
direct
   0.5420159487353134    0.4579840512646867    0.2500000000000000 Tm
   0.4579840512646867    0.5420159487353134    0.7500000000000000 Tm
   0.8272430699313936    0.1727569300686065    0.0605630143301083 Re
   0.1727569300686066    0.8272430699313937    0.9394369856698915 Re
   0.1727569300686066    0.8272430699313937    0.5605630143301086 Re
   0.8272430699313936    0.1727569300686065    0.4394369856698918 Re
   0.2647573399035549    0.7352426600964451    0.2500000000000000 Si
   0.7352426600964451    0.2647573399035549    0.7500000000000000 Si
   0.0000000000000000    0.0000000000000000    0.0000000000000000 C
   0.0000000000000000    0.0000000000000000    0.5000000000000000 C
