Mn1 N1 F3
1.0
   3.7701068697663542    0.0000000000000000    0.0000000000000000
   0.0000000000000000    3.7701068697663542    0.0000000000000000
   0.0000000000000000    0.0000000000000000    3.7701068697663542
Mn N F
1 1 3
direct
   0.4999999999999999    0.4999999999999999    0.4999999999999999 Mn
   0.0000000000000000    0.0000000000000000    0.0000000000000000 N
   0.4999999999999999    0.4999999999999999    0.0000000000000000 F
   0.4999999999999999    0.0000000000000000    0.4999999999999999 F
   0.0000000000000000    0.4999999999999999    0.4999999999999999 F
