Ni1 Sn2 Au1
1.0
   4.1594133232480068   -0.0000000027049291    0.0000000000000003
  -2.0797060415583566    3.6021579607672254    0.0000000000000003
  -0.0000000000000000   -0.0000000000000000    5.3884057501915716
Ni Sn Au
1 2 1
direct
   0.0000000000000000    0.0000000000000000    0.0000000000000000 Ni
   0.3333333333333358    0.6666666666666644    0.2116748207520402 Sn
   0.6666666666666644    0.3333333333333357    0.7883251792479595 Sn
   0.0000000000000000    0.0000000000000000    0.5000000000000000 Au
