Cd10 I20
1.0
   4.2871580400537583    0.0000000023390933   -0.0000000000000001
  -2.1435785159702760    3.7127875089396216   -0.0000000000000000
  -0.0000000000000011   -0.0000000000000006   68.7638008548150452
Cd I
10 20
direct
   0.0000000000000000    0.0000000000000000    0.7250090398132234 Cd
   0.0000000000000000    0.0000000000000000    0.8250031188763201 Cd
   0.0000000000000000    0.0000000000000000    0.1250059544871309 Cd
   0.0000000000000000    0.0000000000000000    0.5249876280909176 Cd
   0.0000000000000000    0.0000000000000000    0.3249845791962971 Cd
   0.0000000000000000    0.0000000000000000    0.6249861006251226 Cd
   0.6666669999999968    0.3333330000000032    0.0249964149964939 Cd
   0.6666669999999968    0.3333330000000032    0.4249933479305658 Cd
   0.0000000000000000    0.0000000000000000    0.9249763714099418 Cd
   0.0000000000000000    0.0000000000000000    0.2250110240751462 Cd
   0.0000000000000000    0.0000000000000000    0.9997955595878700 I
   0.3333330000000033    0.6666669999999969    0.6502007505750307 I
   0.3333330000000033    0.6666669999999969    0.8502171375637180 I
   0.6666669999999968    0.3333330000000032    0.4997840955934749 I
   0.3333330000000033    0.6666669999999969    0.2502254505464267 I
   0.3333330000000033    0.6666669999999969    0.1502202338119613 I
   0.6666669999999968    0.3333330000000032    0.5997774884405810 I
   0.3333330000000033    0.6666669999999969    0.5502018743640531 I
   0.6666669999999968    0.3333330000000032    0.2997837050678000 I
   0.6666669999999968    0.3333330000000032    0.8997757110483462 I
   0.6666669999999968    0.3333330000000032    0.7997959188390624 I
   0.6666669999999968    0.3333330000000032    0.6997995407507511 I
   0.3333330000000033    0.6666669999999969    0.9502001314744608 I
   0.6666669999999968    0.3333330000000032    0.1998032230800364 I
   0.6666669999999968    0.3333330000000032    0.0998003425619385 I
   0.3333330000000033    0.6666669999999969    0.3502089101784386 I
   0.3333330000000033    0.6666669999999969    0.4502162577052670 I
   0.0000000000000000    0.0000000000000000    0.3997951693242238 I
   0.3333330000000033    0.6666669999999969    0.0502190882501526 I
   0.3333330000000033    0.6666669999999969    0.7502228317352551 I
