Be2 Co1 Ru1
1.0
   2.6882786792539490    0.0000000000000000    0.0000000000000000
   0.0000000000000000    2.6882786792539490    0.0000000000000000
  -0.0000000000000000    0.0000000000000000    5.4825460772898333
Be Co Ru
2 1 1
direct
   0.0000000000000000    0.0000000000000000    0.0323528464080651 Be
   0.5000000000000000    0.5000000000000000    0.2370189274414694 Be
   0.0000000000000000    0.0000000000000000    0.4605714982744721 Co
   0.5000000000000000    0.5000000000000000    0.7700577278759978 Ru
