Er6 Co2 Si6
1.0
   4.0861206498087492   -0.0000000007829298    0.6746529361713887
   2.0147519580487279    5.1746094713226700    0.5087824698331014
   0.0082433908724634   -0.0244642993468508   12.6614334965617168
Er Co Si
6 2 6
direct
   0.7473857540774006    0.7340674824001920    0.7711620094448595 Er
   0.3999696471407137    0.2808960994780497    0.9191646062404232 Er
   0.6000303528592863    0.7191039005219501    0.0808353937595698 Er
   0.4755080635625076    0.6693715386548802    0.3796123342198878 Er
   0.2526142459226000    0.2659325175998080    0.2288379905551404 Er
   0.5244919364374924    0.3306284613451199    0.6203876657801120 Er
   0.7525878118197186    0.0784090213413886    0.4164153550190335 Co
   0.2474121881802817    0.9215909786586112    0.5835846449809667 Co
   0.0513763557131432    0.1390003913969544    0.7582478971764202 Si
   0.1396307344575266    0.2650494561434034    0.4556890749411299 Si
   0.8603692655424732    0.7349505438565966    0.5443109250588699 Si
   0.9486236442868562    0.8609996086030456    0.2417521028235796 Si
   0.8826579158782293    0.1588586576381372    0.0758265106050569 Si
   0.1173420841217708    0.8411413423618627    0.9241734893949431 Si
