Li8 Mn2 Co4 O14
1.0
   4.7746894663012771   -0.0121913201906074    1.1398899752174478
   1.5657966544512072    4.6920992492518092    0.4148589766714960
   0.0838454935733915   -0.0927600843113822   10.2242545958671780
Li Mn Co O
8 2 4 14
direct
   0.0734391216816911    0.5000921650538821    0.8529086734106134 Li
   0.6379729078355374    0.5000170734437055    0.7240337566684909 Li
   0.2088400896969596    0.4999748610127814    0.5824136756764755 Li
   0.7844448003583991    0.4999819952660530    0.4311490553120649 Li
   0.3604595335457977    0.4999985770820050    0.2790465813924403 Li
   0.9308636729099132    0.5000249426868404    0.1382333957410522 Li
   0.5042052645386023    0.4999967654127002    0.9913989420274579 Li
   0.5726306096775586    0.0000389865921714    0.8547103549474044 Li
   0.0026849352186685    0.0000146615070677    0.9946839390283739 Mn
   0.2851729670468420   -0.0000191493006829    0.4296457553164270 Mn
   0.8575788928139573    0.9999808716408928    0.2848830889779200 Co
   0.4292186082589541    0.9999947038688981    0.1416285158872228 Co
   0.1418374715336768    0.0000021778494458    0.7162873329771369 Co
   0.7131100950430430   -0.0000131489050987    0.5737645029945111 Co
   0.2445575717376146    0.2256642409078230    0.0095451832229669 O
   0.7460095910645587    0.7743102825178477    0.0095031768224463 O
   0.2918508177322579    0.7681487172277663    0.8590804075010078 O
   0.8941604230009250    0.7754000363641405    0.7055623229578907 O
   0.4546227940164884    0.7795740896365212    0.5704640510274195 O
   0.0300231524292599    0.7779997653646106    0.4261498553749732 O
   0.5976155941182725    0.7778664763030430    0.2881024492905747 O
   0.1703127478736761    0.7807534310359248    0.1435857166964619 O
   0.4002178788123023    0.2246232685241425    0.7055830531264149 O
   0.9748617753704983    0.2204142340508597    0.5705103880299829 O
   0.5438137980088914    0.2219558464962524    0.4261979465445668 O
   0.1142991387239370    0.2221033824359789    0.2881440934583119 O
   0.6861481143898323    0.2192276487769369    0.1436437629980890 O
   0.8490466325618821    0.2318690971474806    0.8591410225913148 O
