Rb2 Ni1 F4
1.0
   3.9454165294674373   -0.0000000097599169   -1.1350238565321018
  -0.3265244205041546    3.9318813692279591   -1.1350238611912196
  -0.0193424270187358   -0.0210148308481620    7.3575433579349578
Rb Ni F
2 1 4
direct
   0.6457796799760177    0.6457796799759826    0.2915583599516705 Rb
   0.3542203200239823    0.3542203200240172    0.7084416400483297 Rb
   0.0000000000000000    0.0000000000000000    0.0000000000000000 Ni
   0.5000000000000000    0.0000000000000000   -0.0000000000000000 F
   0.0000000000000000    0.4999999999999999   -0.0000000000000000 F
   0.8543207301371238    0.8543207301372456    0.7086434602755067 F
   0.1456792698628762    0.1456792698627544    0.2913565397244934 F
