Be1 Cu1 Te2
1.0
   3.6303083734279791    0.0000000000000000   -0.0000000000000000
   0.0000000000000000    3.6303083734279791    0.0000000000000000
  -0.0000000000000000    0.0000000000000000    6.8538520106576248
Be Cu Te
1 1 2
direct
   0.0000000000000000    0.0000000000000000    0.5136174687295859 Be
   0.5000000000000000    0.5000000000000000    0.7455229029496561 Cu
   0.0000000000000000    0.0000000000000000    0.8725834477963510 Te
   0.5000000000000000    0.5000000000000000    0.3682761805244141 Te
