V4 Cr2 O12
1.0
   5.4036992114160949   -0.1180200475680319    1.5991064934893457
  -1.4664561590894674    6.4646162452888234   -0.7308336674142834
  -0.1529443370301506    0.0200074757886511    6.6699923727942290
V Cr O
4 2 12
direct
   0.7599830649866990    0.2002448549448999    0.6047281267693070 V
   0.2400183984838678    0.7997546866688539    0.3952705126219662 V
   0.2601427801647677    0.3952716490763690    0.7997059781162037 V
   0.7398603199741874    0.6047292884357115    0.2002935935928181 V
   0.7499977366269017    0.0822088789292852    0.0822252471910684 Cr
   0.2500013248730158    0.9177912843231698    0.9177756169599645 Cr
   0.0656498010935739    0.3446516510181455    0.6199080612986725 O
   0.5657393110400997    0.3802368750407263    0.6553723551461982 O
   0.2258924914020011    0.9203966213448401    0.6359967638873255 O
   0.2742515485547923    0.6360361358467683    0.9203838693914367 O
   0.7257465153641032    0.3639640325296368    0.0796157705732464 O
   0.8668524208256355    0.8136076739493537    0.0282351661588069 O
   0.3668438102415846    0.9717727161848779    0.1863553407909476 O
   0.9343515111111368    0.6553456783113797    0.3800910116266826 O
   0.1331471811102023    0.1863940118705739    0.9717650926513339 O
   0.6331556010327788    0.0282273690749278    0.8136447027405949 O
   0.7741047832067963    0.0796032154622114    0.3640034002897294 O
   0.4342623999078596    0.6197633769882559    0.3446293901937029 O
