Li2 Hg1 Ge1 S4
1.0
  -0.0000000000000000    3.9716783805449043    5.3833207471724593
   3.9716783805449043   -0.0000000000000000    5.3833207471724593
   3.9716783805449043    3.9716783805449043   -0.0000000000000000
Li Hg Ge S
2 1 1 4
direct
   0.2500000000000000    0.2500000000000000    0.2500000000000000 Li
   0.7499999999999999    0.7500000000000000    0.7500000000000003 Li
   0.0000000000000000    0.0000000000000000    0.0000000000000000 Hg
   0.5000000000000000    0.4999999999999999    0.5000000000000000 Ge
   0.4064563498936174    0.8514867552475115    0.1485132447524884 S
   0.5935436501063825    0.1485132447524884    0.4064563498936175 S
   0.8514867552475115    0.4064563498936175    0.5935436501063825 S
   0.1485132447524884    0.5935436501063825    0.8514867552475116 S
