Ti1 Al1 Au2
1.0
   3.9511064814634529   -0.0000000008003483    2.2811723332027070
   1.3170358256453329    3.7251391688657143    2.2811723332027070
   0.0000000000000000    0.0000000000000000    4.5623446664054139
Ti Al Au
1 1 2
direct
   0.5000000000000001    0.4999999999999999    0.5000000000000000 Ti
   0.0000000000000000    0.0000000000000000    0.0000000000000000 Al
   0.2500000000000001    0.2500000000000000    0.2500000000000000 Au
   0.7500000000000000    0.7500000000000000    0.7500000000000001 Au
