Sm4 Cr4 Sb12
1.0
   6.0902743419548839   -0.0000000000000000    0.0000000000000004
   0.0000000000000010    6.2499066840724637    0.0000000000000004
   0.0000000000000000    0.0000000000000000   12.9482894364862684
Sm Cr Sb
4 4 12
direct
   0.2500000000000000    0.5061651712087325    0.3091619367063833 Sm
   0.7500000000000000    0.4938348287912677    0.6908380632936165 Sm
   0.2500000000000000    0.0061651712087323    0.6908380632936165 Sm
   0.7500000000000000    0.9938348287912675    0.3091619367063833 Sm
   0.0000000000000000    0.7500000000000000    0.9060287009819180 Cr
   0.0000000000000000    0.2500000000000000    0.0939712990180819 Cr
   0.5000000000000000    0.2500000000000000    0.0939712990180819 Cr
   0.5000000000000000    0.7500000000000000    0.9060287009819180 Cr
   0.7500000000000000   -0.0043227681575641    0.7755622306299781 Sb
   0.2500000000000000    0.0043227681575641    0.2244377693700222 Sb
   0.7500000000000000    0.8998653772742822    0.0635161335578353 Sb
   0.2500000000000000    0.1001346227257179    0.9364838664421647 Sb
   0.7500000000000000    0.3998653772742822    0.9364838664421647 Sb
   0.0000000000000000    0.2500000000000000    0.4978936289704536 Sb
   0.5000000000000000    0.7500000000000000    0.5021063710295460 Sb
   0.5000000000000000    0.2500000000000000    0.4978936289704536 Sb
   0.2500000000000000    0.5043227681575643    0.7755622306299781 Sb
   0.0000000000000000    0.7500000000000000    0.5021063710295460 Sb
   0.2500000000000000    0.6001346227257178    0.0635161335578353 Sb
   0.7500000000000000    0.4956772318424358    0.2244377693700222 Sb
