Pm1 Sb1 Pd2
1.0
   0.0000000000000000    3.4574555304262988    3.4574555304262988
   3.4574555304262988    0.0000000000000000    3.4574555304262988
   3.4574555304262988    3.4574555304262988    0.0000000000000000
Pm Sb Pd
1 1 2
direct
   0.2500000000000000    0.2500000000000000    0.2500000000000000 Pm
   0.7499990000000025    0.7499990000000024    0.7499990000000024 Sb
   0.0000000000000000    0.0000000000000000    0.0000000000000000 Pd
   0.4999999999999999    0.5000000000000000    0.5000000000000000 Pd
