Li2 V4 F14
1.0
   8.8886764554918702    0.0138055992927781    0.2958874275728988
   7.5861457241305832    4.6324024843748983    0.2958874275728989
  -0.0877222889484939   -0.0247393266881175    5.4712524544017640
Li V F
2 4 14
direct
   0.4999999999999999    0.0000000000000000   -0.0000000000000000 Li
   0.0000000000000001    0.4999999999999999    0.5000000000000000 Li
   0.1499743814170162    0.6398829265514531    0.8001271424209080 V
   0.6398829265514527    0.1499743814170161    0.3001271424209082 V
   0.3601170734485468    0.8500256185829839    0.6998728575790920 V
   0.8500256185829840    0.3601170734485467    0.1998728575790919 V
   0.6446691225983201    0.5010671448755837    0.8966375708621073 F
   0.5010671448755838    0.6446691225983201    0.3966375708621075 F
   0.2095103140342495    0.0698255085778864    0.0064311461858195 F
   0.0698255085778864    0.2095103140342495    0.5064311461858196 F
   0.6176158470598025    0.7959746560306499    0.6888126900596879 F
   0.7959746560306499    0.6176158470598027    0.1888126900596878 F
   0.9301744914221135    0.7904896859657503    0.4935688538141805 F
   0.3823841529401971    0.2040253439693502    0.3111873099403120 F
   0.1071029196838903    0.8928970803161097    0.7500000000000000 F
   0.7904896859657503    0.9301744914221134    0.9935688538141804 F
   0.4989328551244163    0.3553308774016793    0.6033624291378926 F
   0.3553308774016794    0.4989328551244163    0.1033624291378925 F
   0.2040253439693502    0.3823841529401972    0.8111873099403122 F
   0.8928970803161099    0.1071029196838902    0.2500000000000000 F
