Na6 B6 O6 F12
1.0
   3.4465621173789387    5.8987137777287399   -0.0203062892436010
  -3.4465621173789387    5.8987137777287399   -0.0203062892436010
   0.0000000000000000    3.7173984829127149    8.5687536083479969
Na B O F
6 6 6 12
direct
   0.6836914830508243    0.1318047714891364    0.9968926789132332 Na
   0.8681952285108636    0.3163085169491758    0.5031073210867665 Na
   0.3163085169491757    0.8681952285108634    0.0031073210867664 Na
   0.1318047714891365    0.6836914830508242    0.4968926789132339 Na
   0.5000000000000000    0.0000000000000000    0.4999999999999999 Na
  -0.0000000000000000    0.5000000000000000    0.0000000000000000 Na
   0.7906952462434936    0.2093047537565061    0.2500000000000000 B
   0.2093047537565060    0.7906952462434939    0.7499999999999999 B
   0.3689303962329677    0.4205892414344375    0.2442313609911389 B
   0.5794107585655626    0.6310696037670323    0.2557686390088609 B
   0.6310696037670321    0.5794107585655625    0.7557686390088612 B
   0.4205892414344375    0.3689303962329677    0.7442313609911387 B
   0.2176120157293363    0.5808250362815968    0.7441137579986347 O
   0.4191749637184029    0.7823879842706630    0.7558862420013652 O
   0.7823879842706631    0.4191749637184030    0.2558862420013653 O
   0.5808250362815967    0.2176120157293363    0.2441137579986347 O
   0.6233399864312352    0.3766600135687646    0.7499999999999999 O
   0.3766600135687646    0.6233399864312353    0.2500000000000000 O
   0.4661683866166437    0.2820585050216847    0.6077611742460577 F
   0.5338316133833563    0.7179414949783153    0.3922388257539423 F
   0.0315835785908871    0.8751344001318496    0.8857109811405319 F
   0.1248655998681505    0.9684164214091129    0.6142890188594679 F
   0.9684164214091128    0.1248655998681504    0.1142890188594678 F
   0.8751344001318494    0.0315835785908871    0.3857109811405322 F
   0.3735004416508630    0.1954571732849234    0.8800062182887952 F
   0.8045428267150763    0.6264995583491372    0.6199937817112047 F
   0.6264995583491371    0.8045428267150763    0.1199937817112042 F
   0.1954571732849234    0.3735004416508629    0.3800062182887962 F
   0.7179414949783153    0.5338316133833563    0.8922388257539422 F
   0.2820585050216848    0.4661683866166437    0.1077611742460575 F
