Er1 Sc1 B2 O6
1.0
   4.4411837946617183   -0.0142042292009576    3.9986763655027260
   1.7716687823256918    4.0725304945945471    3.9986763634227427
  -0.0217451206784921   -0.0142042278231504    5.9760395601707783
Er Sc B O
1 1 2 6
direct
   0.0000000000000000    0.0000000000000000    0.0000000000000000 Er
   0.5000000000000001    0.5000000000000000    0.5000000000000000 Sc
   0.2458571323159577    0.2458571323159637    0.2458571323159717 B
   0.7541428676840420    0.7541428676840359    0.7541428676840283 B
   0.5226178188653040    0.9557501454993838    0.2627306143803976 O
   0.2627306143802988    0.5226178188626515    0.9557501455021649 O
   0.9557501454994842    0.2627306143830542    0.5226178188625317 O
   0.7372693856197015    0.4773821811373486    0.0442498544978351 O
   0.0442498545005158    0.7372693856169454    0.4773821811374682 O
   0.4773821811346959    0.0442498545006157    0.7372693856196026 O
