Nd8 Ge6 S24
1.0
  10.4530029513093456   -0.0057015902183524   -4.8307494615503170
  -7.5524914069056575    7.2266994850358035   -4.8307494614179323
  -0.0022901958037603   -0.0057015898962246   11.5152687873165416
Nd Ge S
8 6 24
direct
   0.4758403431457421    0.9375851414145318    0.7137625559948745 Nd
   0.9758403431457374    0.2137625559949068    0.4375851414145000 Nd
   0.9985570563425855    0.9985570563425206    0.9985570563425686 Nd
   0.2137625559948819    0.4375851414145325    0.9758403431457683 Nd
   0.7137625559949168    0.4758403431458201    0.9375851414145404 Nd
   0.9375851414144962    0.7137625559949130    0.4758403431457687 Nd
   0.4375851414145357    0.9758403431458259    0.2137625559949152 Nd
   0.4985570563425853    0.4985570563425208    0.4985570563425688 Nd
   0.1437748929268381    0.9690842607710740    0.3555417003794246 Ge
   0.8555417003794344    0.4690842607710684    0.6437748929269019 Ge
   0.9690842607710006    0.3555417003794846    0.1437748929268953 Ge
   0.6437748929268289    0.8555417003794870    0.4690842607710027 Ge
   0.4690842607710832    0.6437748929269969    0.8555417003794955 Ge
   0.3555417003795082    0.1437748929269936    0.9690842607710803 Ge
   0.6858553730594481    0.8725480612145259    0.6888563663795630 S
   0.8147214645426130    0.2823102538835808    0.8843503261864003 S
   0.7823102538836586    0.3147214645427119    0.3843503261864750 S
   0.3843503261866494    0.7823102538835469    0.3147214645427407 S
   0.3147214645422691    0.3843503261861985    0.7823102538833304 S
   0.5852090846591910    0.6096757212500243    0.2956395534256594 S
   0.6888563663793983    0.6858553730594098    0.8725480612144547 S
   0.7956395534257210    0.1096757212500047    0.0852090846593577 S
   0.1858553730596224    0.1888563663796669    0.3725480612146552 S
   0.2956395534261018    0.5852090846594982    0.6096757212503763 S
   0.6337962219879241    0.3511969814876936    0.0866446509472769 S
   0.5866446509472634    0.8511969814876723    0.1337962219880745 S
   0.0852090846593164    0.7956395534257126    0.1096757212501401 S
   0.2823102538832375    0.8843503261861967    0.8147214645424292 S
   0.3511969814877375    0.0866446509474203    0.6337962219881677 S
   0.1337962219880224    0.5866446509474472    0.8511969814876582 S
   0.1096757212505780    0.0852090846594891    0.7956395534260119 S
   0.1888563663794381    0.3725480612145396    0.1858553730593827 S
   0.8843503261867265    0.8147214645426800    0.2823102538837170 S
   0.8725480612146997    0.6888563663796672    0.6858553730595432 S
   0.0866446509475101    0.6337962219882799    0.3511969814877848 S
   0.6096757212503224    0.2956395534256839    0.5852090846594739 S
   0.8511969814878857    0.1337962219882742    0.5866446509474963 S
   0.3725480612144856    0.1858553730593960    0.1888563663795229 S
