Ca1 Ti1 O3
1.0
   3.8713140357855016    0.0000000000000000   -0.0000000000000000
  -0.0000000000000000    3.8713140357855016   -0.0000000000000000
   0.0000000000000000    0.0000000000000000    3.8713140357855016
Ca Ti O
1 1 3
direct
   0.4999998908023359    0.4999998908023359    0.4999998908023359 Ca
   0.0000000000000000    0.0000000000000000    0.0000000000000000 Ti
   0.0000000000000000    0.4999998908023359    0.0000000000000000 O
   0.0000000000000000    0.0000000000000000    0.4999998908023359 O
   0.4999998908023359    0.0000000000000000    0.0000000000000000 O
