Fe1 Br3
1.0
   3.8754483076260744   -0.6537920875859796    0.0152904040491140
  -2.0312106231762179    3.3646285886482752    0.0152904069799607
  -0.0510136222510274   -0.0749846826730069    9.6072615678449118
Fe Br
1 3
direct
   0.2501954086433192    0.2501954087328062    0.1249912053436456 Fe
   0.2494637076126628    0.2494637076022156    0.6250262311179118 Br
   0.7502477888082751    0.7502477887246651    0.3053968181916397 Br
   0.7500930949357418    0.7500930949403133    0.9445857453468022 Br
