Er6 Al4 Ni12
1.0
   7.2381301344738578   -0.0000000001718398   -2.5590650865837210
  -3.6190650673857463    6.2684044595076891   -2.5590650865837210
   0.0000000002976352    0.0000000005155194    7.6771962614389837
Er Al Ni
6 4 12
direct
   0.2937369230231053   -0.0000000000000521    0.2937369230231006 Er
   0.7062630769767761    0.7062630769767617    0.0000000000000330 Er
   0.2937369230232240    0.2937369230232383   -0.0000000000000329 Er
   0.0000000000000377    0.7062630769768656    0.7062630769768850 Er
  -0.0000000000000377    0.2937369230231341    0.2937369230231150 Er
   0.7062630769768945    0.0000000000000521    0.7062630769768992 Er
   0.4999999999999999    0.4999999999999999    0.5000000000000000 Al
   0.0000000000000000    0.0000000000000000    0.4999999999999999 Al
  -0.0000000000000000    0.4999999999999999    0.0000000000000000 Al
   0.5000000000000000    0.0000000000000000    0.0000000000000000 Al
   0.6656312753373891    0.0000000000000525    0.3343687246626685 Ni
   0.3343687246626111   -0.0000000000000525    0.6656312753373315 Ni
   0.3343687246627090    0.3343687246627017    0.6687374493253705 Ni
   0.6687374493253126    0.3343687246626492    0.3343687246627090 Ni
   0.6656312753372911    0.6656312753372984    0.3312625506746296 Ni
   0.6656312753373510    0.3312625506747087    0.6656312753372985 Ni
   0.0000000000000597    0.6656312753374032    0.3343687246626758 Ni
   0.6656312753373290    0.3343687246626492   -0.0000000000000072 Ni
  -0.0000000000000598    0.3343687246625967    0.6656312753373242 Ni
   0.3343687246626708    0.6656312753373508    0.0000000000000072 Ni
   0.3343687246626492    0.6687374493252911    0.3343687246627017 Ni
   0.3312625506746870    0.6656312753373508    0.6656312753372911 Ni
