Pr1 Mg2 Sc1
1.0
   0.0000000000000000    3.7361610781300150    3.7361610781300150
   3.7361610781300150   -0.0000000000000000    3.7361610781300150
   3.7361610781300150    3.7361610781300150    0.0000000000000000
Pr Mg Sc
1 2 1
direct
   0.2500000000000001    0.2500000000000000    0.2499999999999999 Pr
   0.0000000000000000    0.0000000000000000    0.0000000000000000 Mg
   0.5000000000000001    0.5000000000000000    0.4999999999999998 Mg
   0.7500000000000001    0.7500000000000000    0.7499999999999997 Sc
