La12 Ge4
1.0
   6.4868891335560814   -0.0000000000000000    0.0000000000000000
   0.0000000000000000    8.0189614106381644    0.0000000000000000
   0.0000000000000000    0.0000000000000000    9.7804941816358735
La Ge
12 4
direct
   0.8830542725934534    0.1865907787332360    0.9509198593649866 La
   0.3830542725934533    0.3134092212667641    0.0490801406350137 La
   0.1169457274065467    0.8134092212667643    0.4509198593649864 La
   0.6169457274065469    0.6865907787332356    0.5490801406350135 La
   0.1169457274065467    0.8134092212667643    0.0490801406350137 La
   0.6169457274065469    0.6865907787332356    0.9509198593649866 La
   0.8830542725934534    0.1865907787332360    0.5490801406350135 La
   0.3830542725934533    0.3134092212667641    0.4509198593649864 La
   0.3721542588318803    0.0273190917303175    0.7500000000000000 La
   0.8721542588318659    0.4726809082696826    0.2500000000000000 La
   0.6278457411681341    0.9726809082696826    0.2500000000000000 La
   0.1278457411681197    0.5273190917303174    0.7500000000000000 La
   0.5895364179161083    0.3814706242986300    0.7500000000000000 Ge
   0.0895364179161082    0.1185293757013701    0.2500000000000000 Ge
   0.4104635820838921    0.6185293757013699    0.2500000000000000 Ge
   0.9104635820838919    0.8814706242986301    0.7500000000000000 Ge
