Be2 V1 Te1
1.0
  -1.7973134790799641    1.7973134790799641    4.1616194071432160
   1.7973134790799641   -1.7973134790799641    4.1616194071432160
   1.7973134790799641    1.7973134790799641   -4.1616194071432160
Be V Te
2 1 1
direct
   0.0000000000000000    0.0000000000000000    0.0000000000000000 Be
   0.2500000000000001    0.7500000000000002    0.4999999999999999 Be
   0.7500000000000000    0.2500000000000001    0.4999999999999999 V
   0.5000000000000001    0.5000000000000001    0.0000000000000000 Te
