Tl3 Cl1
1.0
   4.9360052920822088   -0.0000000000000000   -0.0000000000000000
   0.0000000000000000    4.9360052920822088   -0.0000000000000000
   0.0000000000000000    0.0000000000000000    4.9360052920822088
Tl Cl
3 1
direct
   0.0000000000000000    0.5000000000000000    0.5000000000000000 Tl
   0.5000000000000000    0.0000000000000000    0.5000000000000000 Tl
   0.5000000000000000    0.5000000000000000    0.0000000000000000 Tl
   0.0000000000000000    0.0000000000000000    0.0000000000000000 Cl
