Te16 Au8
1.0
   4.4577017637582754    0.0000000000000000    0.0000000000000000
   0.0000000000000000    8.9238316912569395    0.0000000000000000
   0.0000000000000000    0.0000000000000000   16.8913347812962584
Te Au
16 8
direct
   0.4545897522758243    0.0275942081628462    0.3809861539494812 Te
   0.9160355327138862    0.6954721251210615    0.5069608191907765 Te
   0.9160355327138862    0.3045278748789387    0.4930391808092233 Te
   0.9160355327138862    0.3045278748789387    0.0069608191907767 Te
   0.9160355327138862    0.6954721251210615    0.9930391808092236 Te
   0.0944248449477632    0.3701499665674863    0.2500000000000000 Te
   0.0119080407991192    0.0230430279949184    0.7500000000000001 Te
   0.0119080407991192    0.9769569720050810    0.2500000000000000 Te
   0.0944248449477632    0.6298500334325136    0.7500000000000001 Te
   0.5134266889273333    0.3599422059192430    0.8706245281042331 Te
   0.5134266889273333    0.3599422059192430    0.6293754718957669 Te
   0.5134266889273333    0.6400577940807565    0.3706245281042332 Te
   0.4545897522758243    0.0275942081628462    0.1190138460505189 Te
   0.4545897522758243    0.9724057918371537    0.8809861539494809 Te
   0.4545897522758243    0.9724057918371537    0.6190138460505191 Te
   0.5134266889273333    0.6400577940807565    0.1293754718957668 Te
   0.9608069455521304    0.0000000000000000    0.5000000000000000 Au
   0.4927404207377415    0.3328758552755043    0.3739416414050307 Au
   0.4927404207377415    0.6671241447244957    0.6260583585949694 Au
   0.4927404207377415    0.6671241447244957    0.8739416414050306 Au
   0.4927404207377415    0.3328758552755043    0.1260583585949696 Au
   0.0092733793914336    0.3282232538353301    0.7500000000000001 Au
   0.0092733793914336    0.6717767461646698    0.2500000000000000 Au
   0.9608069455521304    0.0000000000000000    0.0000000000000000 Au
