Ba2 Br2
1.0
   4.6782840987060794    0.0000000000000000    0.0000000000000000
   0.0000000000000000    4.6782840987060794    0.0000000000000000
   0.0000000000000000    0.0000000000000000    6.7081585450805763
Ba Br
2 2
direct
   0.0000000000000000    0.0000000000000000    0.2195406778082298 Ba
   0.5000004230015094    0.5000004230015094    0.7804592798855442 Ba
   0.0000000000000000    0.0000000000000000    0.7183479474109502 Br
   0.5000004230015094    0.5000004230015094    0.2816520947889719 Br
