Tb1 Co2 B2 C1
1.0
   3.5523405170357631    0.0000000000000001    0.0000000007337211
   0.0000000000000001    3.5523999387186578   -0.0000000007336856
  -1.7761707570800611   -1.7761994706952160    5.1388263852133873
Tb Co B C
1 2 2 1
direct
   0.5000000000000000    0.5000000000000000    0.0000000000000000 Tb
   0.7499971464745160    0.2499971464745215    0.4999942929490449 Co
   0.2500028535254839    0.7500028535254786    0.5000057070509552 Co
   0.1458239574971133    0.1458239574974016    0.2916489149945244 B
   0.8541760425028866    0.8541760425025986    0.7083510850054757 B
   0.0000000000000000    0.0000000000000000    0.0000000000000000 C
