Ho8 H16 C4 O28
1.0
   6.1786436525254986    0.0000000000000000   -0.7840301415764847
   0.0000000000000000    5.9712380797152376    0.0000000000000000
   0.0492601608558961    0.0000000000000000   15.3907426543850097
Ho H C O
8 16 4 28
direct
   0.5915746184505510    0.2518626184218008    0.5638069123962517 Ho
   0.4084253815494488    0.7518626184218015    0.9361930876037482 Ho
   0.4084253815494487    0.7481373815781985    0.4361930876037479 Ho
   0.5915746184505510    0.2481373815781993    0.0638069123962520 Ho
   0.5782775057880848    0.2563365438693342    0.8173183541663309 Ho
   0.4217224942119140    0.7563365438693330    0.6826816458336690 Ho
   0.4217224942119140    0.7436634561306670    0.1826816458336690 Ho
   0.5782775057880849    0.2436634561306666    0.3173183541663309 Ho
   0.8272355594022502    0.0034357304834134    0.1974828362104123 H
   0.8272355594022502    0.4965642695165864    0.6974828362104120 H
   0.1727644405977493   -0.0034357304834134    0.8025171637895878 H
   0.8335119575223746    0.5508550116453235    0.2145607458813209 H
   0.1664880424776246    0.0508550116453232    0.2854392541186789 H
   0.1664880424776246    0.4491449883546765    0.7854392541186793 H
   0.8335119575223746    0.9491449883546765    0.7145607458813206 H
   0.8165533664622473    0.9693622547507281    0.9452622356850653 H
   0.1834466335377524    0.0306377452492792    0.0547377643149343 H
   0.1834466335377524    0.4693622547507277    0.5547377643149346 H
   0.1727644405977493    0.5034357304834128    0.3025171637895874 H
   0.2246739415413628    0.1710658467860059    0.4221370686747059 H
   0.7753260584586370    0.6710658467860066    0.0778629313252942 H
   0.7753260584586370    0.8289341532139936    0.5778629313252942 H
   0.2246739415413627    0.3289341532139940    0.9221370686747058 H
   0.8165533664622473    0.5306377452492719    0.4452622356850662 H
   0.8998036875496782    0.9267228704261049    0.3831709676501843 C
   0.1001963124503226    0.4267228704261047    0.1168290323498157 C
   0.1001963124503226    0.0732771295738952    0.6168290323498156 C
   0.8998036875496782    0.5732771295738952    0.8831709676501843 C
   0.3275795072739833    0.9647068338660867    0.8105747330080328 O
   0.6724204927260170    0.4647068338660866    0.6894252669919670 O
   0.9674180214561428    0.2769998550022271    0.0837225249653825 O
   0.0325819785438569    0.7769998550022273    0.4162774750346175 O
   0.0325819785438569    0.7230001449977728    0.9162774750346171 O
   0.9674180214561428    0.2230001449977726    0.5837225249653828 O
   0.6972304967806011    0.5170006361861063    0.2376921161672422 O
   0.3027695032193986    0.0170006361861071    0.2623078838327579 O
   0.3027695032193986    0.4829993638138930    0.7623078838327579 O
   0.6972304967806011   -0.0170006361861070    0.7376921161672418 O
   0.6768336734352066    0.4548819395226834    0.4468629799545300 O
   0.3231663265647937    0.9548819395226827    0.0531370200454701 O
   0.3231663265647937    0.5451180604773173    0.5531370200454704 O
   0.6768336734352066    0.0451180604773167    0.9468629799545295 O
   0.6224606814961969    0.6325513858436934    0.0599508218296873 O
   0.6224606814961969    0.8674486141563067    0.5599508218296879 O
   0.3775393185038032    0.3674486141563067    0.9400491781703120 O
   0.9577748141606033    0.1215501307960114    0.3556830052023203 O
   0.0422251858393968    0.6215501307960106    0.1443169947976797 O
   0.0422251858393968    0.8784498692039894    0.6443169947976797 O
   0.9577748141606033    0.3784498692039882    0.8556830052023202 O
   0.6911595860438766    0.8915835299834231    0.3744471060747191 O
   0.3088404139561229    0.3915835299834236    0.1255528939252809 O
   0.3088404139561230    0.1084164700165765    0.6255528939252808 O
   0.6911595860438767    0.6084164700165769    0.8744471060747190 O
   0.3275795072739833    0.5352931661339133    0.3105747330080334 O
   0.3775393185038032    0.1325513858436938    0.4400491781703127 O
   0.6724204927260169    0.0352931661339134    0.1894252669919669 O
