Ce4 Ni3 Pt1
1.0
   3.7355602990188936   -0.0000000000000000    0.0000000000000002
   0.0000000000000007    4.2865863541767881    0.0000000000000003
   0.0000000000000000   -0.0000000000000000   10.6670768239409490
Ce Ni Pt
4 3 1
direct
   0.5000000000000000    0.5000000000000000    0.3739052282267680 Ce
   0.0000000000000000    0.5000000000000000    0.8556393951005853 Ce
   0.0000000000000000    0.0000000000000000    0.1394282872762781 Ce
   0.5000000000000000    0.0000000000000000    0.6362919057730093 Ce
   0.0000000000000000    0.5000000000000000    0.5844692829392826 Ni
   0.0000000000000000    0.0000000000000000    0.4175564326593676 Ni
   0.5000000000000000    0.0000000000000000    0.9048345917695350 Ni
   0.5000000000000000    0.5000000000000000    0.0878748762551670 Pt
