Bi8 Se8 S4
1.0
   4.1294525623306351   -0.0000000000000000    0.0000000000000003
   0.0000000000000018   11.4542908588127794    0.0000000000000007
   0.0000000000000000   -0.0000000000000000   11.6713306756185631
Bi Se S
8 8 4
direct
   0.2500000000000000    0.1650566297295383    0.5086485673019233 Bi
   0.2500000000000000    0.3349433702704618    0.0086485673019233 Bi
   0.7500000000000000    0.8349433702704617    0.4913514326980765 Bi
   0.7500000000000000    0.6650566297295382    0.9913514326980767 Bi
   0.7500000000000000    0.4628904948227144    0.6634433611461183 Bi
   0.7500000000000000    0.0371095051772857    0.1634433611461183 Bi
   0.2500000000000000    0.5371095051772857    0.3365566388538817 Bi
   0.2500000000000000    0.9628904948227143    0.8365566388538817 Bi
   0.7500000000000000    0.7985550685983959    0.7762797959074812 Se
   0.7500000000000000    0.7014449314016041    0.2762797959074812 Se
   0.2500000000000000    0.2014449314016040    0.2237202040925189 Se
   0.2500000000000000    0.2985550685983961    0.7237202040925187 Se
   0.2500000000000000    0.8653862059322828    0.0538443834445287 Se
   0.7500000000000000    0.3653862059322828    0.4461556165554711 Se
   0.2500000000000000    0.6346137940677172    0.5538443834445287 Se
   0.7500000000000000    0.1346137940677173    0.9461556165554712 Se
   0.2500000000000000    0.9452241821121051    0.3810136976388454 S
   0.7500000000000000    0.0547758178878949    0.6189863023611546 S
   0.7500000000000000    0.4452241821121051    0.1189863023611545 S
   0.2500000000000000    0.5547758178878948    0.8810136976388454 S
