Mg1 Re3
1.0
  -0.0000180383566590    3.1190704565950411    3.1191633517485888
   3.1191409582175802    0.0000410091222623    3.1191043024987377
   3.1191616240106743    3.1190320739506054    0.0000203442614966
Mg Re
1 3
direct
   0.7500032155173155    0.7499986274509858    0.7500001737996645 Mg
   0.0000009742336970    0.9999909164379358    0.0000057236862728 Re
   0.2500010352972081    0.2499971061041831    0.2499952165117406 Re
   0.4999957749517695    0.5000153500068973    0.4999988860023151 Re
