Ta2 Ti2 Ga2 O12
1.0
   4.6639129610697969   -0.0000000000000000    0.0000000000000000
  -0.0000000000000000    4.6639129610697969    0.0000000000000000
   0.0000000000000000    0.0000000000000000    9.0731864096647001
Ta Ti Ga O
2 2 2 12
direct
   0.4999999999999999    0.4999999999999999    0.8334012092987797 Ta
   0.0000000000000000    0.0000000000000000    0.3334012092987798 Ta
   0.4999999999999999    0.4999999999999999    0.4994394182053524 Ti
   0.0000000000000000    0.0000000000000000    0.9994394182053523 Ti
   0.4999999999999999    0.4999999999999999    0.1674664617959707 Ga
   0.0000000000000000    0.0000000000000000    0.6674664617959708 Ga
   0.6995895842762593    0.6995895842762593    0.9988626540782335 O
   0.3046138617453016    0.3046138617453016    0.6656286886537700 O
   0.3044359787447466    0.3044359787447466    0.3353546126179462 O
   0.3004104157237478    0.3004104157237478    0.9988626540782335 O
   0.8044359787447466    0.1955640212552533    0.8353546126179390 O
   0.1955640212552533    0.8044359787447466    0.8353546126179390 O
   0.8046138617453015    0.1953861382546984    0.1656286886537700 O
   0.6955640212552533    0.6955640212552533    0.3353546126179462 O
   0.1995895842762521    0.8004104157237407    0.4988626540782336 O
   0.1953861382546984    0.8046138617453015    0.1656286886537700 O
   0.8004104157237407    0.1995895842762521    0.4988626540782336 O
   0.6953861382546984    0.6953861382546984    0.6656286886537700 O
