Cr2 Cl2 O2
1.0
   3.2043957486622272    0.0000000000000000    0.0000000000000000
  -0.0000000000000000    3.8618932907619903    0.0000000000000000
   0.0000000000000000    0.0000000000000000    7.7194260175594236
Cr Cl O
2 2 2
direct
   0.2499990000000025    0.2500000000000000    0.1106312647880855 Cr
   0.7500009999999976    0.7500009999999974    0.8893697352119120 Cr
   0.2499990000000025    0.7500009999999974    0.6703210712959621 Cl
   0.7500009999999976    0.2500000000000000    0.3296789287040380 Cl
   0.7500009999999976    0.2500000000000000    0.9467515711397616 O
   0.2499990000000025    0.7500009999999974    0.0532494288602362 O
