Cr2 Co6 N6
1.0
   6.3398601916634183   -0.0648944234455147    0.0000000000000004
  -3.1168104707286384    5.5235696923490227    0.0000000000000004
  -0.0000000000000000   -0.0000000000000000    3.8852384777525999
Cr Co N
2 6 6
direct
   0.6666822549182325    0.3333389722476496    0.7500000000000001 Cr
   0.3333177450817673    0.6666610277523500    0.2500000000000000 Cr
   0.8192254766677395    0.6384717445128940    0.2500000000000000 Co
   0.8191705026391668    0.1807434428304272    0.2500000000000000 Co
   0.3614711748306634    0.1807656595283871    0.2500000000000000 Co
   0.1807745233322603    0.3615282554871057    0.7500000000000001 Co
   0.1808294973608330    0.8192565571695726    0.7500000000000001 Co
   0.6385288251693364    0.8192343404716128    0.7500000000000001 Co
   0.8306423349242762    0.6612875792252445    0.7500000000000001 N
   0.8305762091524861    0.1693288111886131    0.7500000000000001 N
   0.3386516917882466    0.1693630660393882    0.7500000000000001 N
   0.1693576650757236    0.3387124207747554    0.2500000000000000 N
   0.1694237908475137    0.8306711888113872    0.2500000000000000 N
   0.6613483082117532    0.8306369339606117    0.2500000000000000 N
