Ca1 Co4 Cu3 O12
1.0
   5.8398031121832412   -0.0000000073245927   -2.0646820090892111
  -2.9199010687193279    5.0574179640292209   -2.0646820090892111
  -0.0000000000000000   -0.0000000000000000    6.1940460272676328
Ca Co Cu O
1 4 3 12
direct
   0.0000000000000000    0.0000000000000000    0.0000000000000000 Ca
   0.0000000000000000    0.0000000000000000    0.5000000000000000 Co
   0.0000000000000000    0.5000000000000000    0.0000000000000000 Co
   0.5000000000000000    0.5000000000000000    0.5000000000000000 Co
   0.5000000000000000    0.0000000000000000    0.0000000000000000 Co
   0.5000000000000000    0.5000000000000000    0.0000000000000000 Cu
   0.0000000000000000    0.5000000000000000    0.5000000000000000 Cu
   0.5000000000000000    0.0000000000000000    0.5000000000000000 Cu
   0.6945189844143465    0.5177560702581157    0.8232360858426057 O
   0.1767639141562076    0.3054810155848094    0.4822439297411189 O
   0.5177560702589077    0.8232360858438059    0.6945189844157879 O
   0.6945189844137297    0.8712828985702854    0.1767639141554494 O
   0.1287171014300627    0.8232360858449052    0.3054810155857668 O
   0.1767639141554362    0.6945189844143121    0.8712828985714651 O
   0.3054810155856537    0.4822439297418846    0.1767639141573943 O
   0.8232360858437926    0.6945189844151907    0.5177560702588810 O
   0.8712828985699373    0.1767639141550950    0.6945189844142334 O
   0.8232360858445639    0.3054810155856879    0.1287171014285348 O
   0.4822439297410924    0.1767639141561940    0.3054810155842123 O
   0.3054810155862702    0.1287171014297144    0.8232360858445504 O
