Ba1 Be1 V2
1.0
   3.3559014950020556   -0.0000000000000000   -0.0000000000000000
  -0.0000000000000000    3.3559014950020556   -0.0000000000000000
   0.0000000000000000    0.0000000000000000    7.2142804768276338
Ba Be V
1 1 2
direct
   0.5000000000000000    0.5000000000000000    0.0000000000000000 Ba
   0.5000000000000000    0.5000000000000000    0.5000000000000000 Be
   0.0000000000000000    0.0000000000000000    0.6280127600564195 V
   0.0000000000000000    0.0000000000000000    0.3719872399435805 V
