La8 Mg4 S16
1.0
   4.0242540036800785   -0.0000000000000000    0.0000000000000002
   0.0000000000000021   13.2324483998064171    0.0000000000000008
  -0.0000000000000000   -0.0000000000000000   14.0219817333380448
La Mg S
8 4 16
direct
   0.2500000000000000    0.1258998404390343    0.0725431797918086 La
   0.7500000000000000    0.8741001595609661    0.9274568202081911 La
   0.7500000000000000    0.3741001595609657    0.5725431797918088 La
   0.2500000000000000    0.6258998404390340    0.4274568202081914 La
   0.2500000000000000    0.1271436915433854    0.7095863792045648 La
   0.7500000000000000    0.8728563084566145    0.2904136207954349 La
   0.7500000000000000    0.3728563084566147    0.2095863792045652 La
   0.2500000000000000    0.6271436915433856    0.7904136207954351 La
   0.7500000000000000    0.6052844984874651    0.0370946778277533 Mg
   0.2500000000000000    0.3947155015125353    0.9629053221722467 Mg
   0.2500000000000000    0.8947155015125349    0.5370946778277533 Mg
   0.7500000000000000    0.1052844984874648    0.4629053221722466 Mg
   0.2500000000000000    0.7260359799882613    0.9850106509162725 S
   0.7500000000000000    0.2739640200117386    0.0149893490837272 S
   0.2500000000000000    0.7334506495995448    0.2544836410988716 S
   0.7500000000000000    0.2665493504004553    0.7455163589011282 S
   0.7500000000000000    0.7665493504004554    0.7544836410988717 S
   0.2500000000000000    0.2334506495995445    0.2455163589011285 S
   0.2500000000000000    0.5210518243799225    0.6125126540935774 S
   0.2500000000000000    0.0009534034018401    0.3874388129472779 S
   0.7500000000000000    0.9789481756200775    0.1125126540935778 S
   0.2500000000000000    0.0210518243799223    0.8874873459064225 S
   0.7500000000000000    0.4990465965981600    0.8874388129472774 S
   0.2500000000000000    0.5009534034018401    0.1125611870527220 S
   0.2500000000000000    0.2260359799882613    0.5149893490837275 S
   0.7500000000000000    0.9990465965981599    0.6125611870527224 S
   0.7500000000000000    0.4789481756200777    0.3874873459064219 S
   0.7500000000000000    0.7739640200117387    0.4850106509162728 S
