Sm4 Sb4 O16
1.0
   0.0000000000000000    7.6524819338567456   -0.0256396392531843
   5.4878643449180444    0.0000000000000000    0.0000000000000000
   0.0000000000000000   -1.2602187005535246   -7.5766600351974258
Sm Sb O
4 4 16
direct
   0.1046039226840376    0.2736252291213091    0.8536398351283689 Sm
   0.3953960773159624    0.7736252291213086    0.1463601648716310 Sm
   0.8953960773159624    0.7263747708786912    0.1463601648716310 Sm
   0.6046039226840376    0.2263747708786911    0.8536398351283691 Sm
   0.3051781390209301    0.7697352752124879    0.6629282160379303 Sb
   0.1948218609790701    0.2697352752124882    0.3370717839620697 Sb
   0.6948218609790698    0.2302647247875120    0.3370717839620698 Sb
   0.8051781390209299    0.7302647247875121    0.6629282160379304 Sb
   0.6948822346985544    0.4061647185550543    0.5657361328194990 O
   0.8051177653014456    0.9061647185550543    0.4342638671805014 O
   0.3754531378935125    0.5004422272310890    0.8279847487009606 O
   0.1245468621064873    0.0004422272310890    0.1720152512990395 O
   0.6245468621064872    0.4995577727689109    0.1720152512990395 O
   0.8754531378935125   -0.0004422272310891    0.8279847487009607 O
   0.5592933001639344    0.8725751055359330    0.6681177594579113 O
   0.8275569321020532    0.5200407742110598    0.8827974045230128 O
   0.4407066998360653    0.1274248944640670    0.3318822405420889 O
   0.0592933001639346    0.6274248944640669    0.6681177594579114 O
   0.1948822346985548    0.0938352814449457    0.5657361328194989 O
   0.6724430678979467    0.0200407742110597    0.1172025954769870 O
   0.1724430678979469    0.4799592257889401    0.1172025954769870 O
   0.3275569321020531    0.9799592257889401    0.8827974045230127 O
   0.9407066998360654    0.3725751055359331    0.3318822405420890 O
   0.3051177653014452    0.5938352814449456    0.4342638671805014 O
