K2 Bi1 Au1 Cl6
1.0
   6.5623609699394629    0.0000000015134155    3.7887811322417981
   2.1874533281084707    6.1870533086561750    3.7887811322417986
  -0.0000000058473885   -0.0000000041347282    7.5775612847169338
K Bi Au Cl
2 1 1 6
direct
   0.7500000000000001    0.7500000000000001    0.7500000000000000 K
   0.2500000000000000    0.2500000000000000    0.2500000000000000 K
   0.0000000000000000    0.0000000000000000    0.0000000000000000 Bi
   0.4999999999999999    0.5000000000000000    0.4999999999999999 Au
   0.7471572023201253    0.2528427976800551    0.2528427976795858 Cl
   0.2528427976798223    0.2528427976797786    0.7471572023204021 Cl
   0.2528427976798744    0.7471572023199450    0.7471572023204140 Cl
   0.2528427976800769    0.7471572023201474    0.2528427976795640 Cl
   0.7471572023199230    0.2528427976798526    0.7471572023204359 Cl
   0.7471572023201777    0.7471572023202215    0.2528427976795980 Cl
