Li4 Ti1 S4
1.0
  -0.0000000000000000    5.8352569136985792    0.0000000000000000
   2.9176284568492896   -2.9176284568492896    5.3251171228659047
   5.8352569136985792    0.0000000000000000   -0.0000000000000000
Li Ti S
4 1 4
direct
   0.5000000000000000    0.0000000000000000    0.0000000000000000 Li
   0.0000000000000000    0.0000000000000000    0.5000000000000000 Li
   0.7167995666407326    0.4336001332814633    0.2832004333592670 Li
   0.2832004333592669    0.5663998667185364    0.7167995666407326 Li
   0.0000000000000000    0.0000000000000000    0.0000000000000000 Ti
   0.3455769867485989    0.2442483889822000    0.1013285977663989 S
   0.6544230132514010    0.7557516110178001    0.3455769867485990 S
   0.8986714022336008    0.2442483889822000    0.6544230132514011 S
   0.1013285977663989    0.7557516110178001    0.8986714022336006 S
