Li1 Nd2 Al1
1.0
  -0.0000000000000000    3.7427487805359734    3.7427487805359734
   3.7427487805359734   -0.0000000000000000    3.7427487805359734
   3.7427487805359734    3.7427487805359734    0.0000000000000000
Li Nd Al
1 2 1
direct
   0.7500000000000000    0.7499999999999999    0.7499999999999999 Li
   0.0000000000000000    0.0000000000000000    0.0000000000000000 Nd
   0.4999990000000025    0.4999990000000025    0.4999990000000025 Nd
   0.2500000000000000    0.2500000000000000    0.2500000000000000 Al
