La3 Al1
1.0
   1.8762782594397858   -3.2498082286242798   -0.0000000000000000
   1.8762782594397867    3.2498082286242735    0.0000000000000000
   0.0000000000000000   -0.0000000000000001   10.9148270580616007
La Al
3 1
direct
   0.0000000000000000    0.0000000000000000    0.5000000000000000 La
   0.6666669999999968    0.3333330000000032    0.7832200653591159 La
   0.3333330000000032    0.6666669999999968    0.2167799346408841 La
   0.0000000000000000    0.0000000000000000    0.0000000000000000 Al
