Mg2 Cd2
1.0
   4.9826376120586362    0.0000000436969200    0.0000000000000003
  -2.4913177107849886    4.3150903445033695   -0.0000000000000001
   0.0000000000000004    0.0000000000000000    5.7082685951567322
Mg Cd
2 2
direct
   0.3333330000000032    0.6666669999999968    0.4375170037878998 Mg
   0.6666669999999968    0.3333330000000032    0.9375170037879001 Mg
   0.3333330000000032    0.6666669999999968    0.9374829962120997 Cd
   0.6666669999999968    0.3333330000000032    0.4374829962121002 Cd
