Na4 S2 O5
1.0
   5.3381367772824566   -0.0622213261552260   -0.4573659095081042
  -2.4730716578831999   -4.6735569292798820    0.2436700028962903
  -0.0090741232398670    0.0923476945178936   -6.0821577220180814
Na S O
4 2 5
direct
   0.6596725292002595    0.3258539297260961    0.3655787105258077 Na
   0.0164441374729232   -0.0002364909485166    0.0301577814677115 Na
   0.0104849490589371   -0.0022303075386949    0.5358338122967871 Na
   0.3488043169544888    0.6607402910284790    0.6982449300809144 Na
   0.6868367042585857    0.3137829011202611    0.8582140700285027 S
   0.3572571846965383    0.6620457891455168    0.1966981285766811 S
   0.3959253520986751    0.2171433409662401    0.7404305702387857 O
   0.8928542522668416    0.6243459833560855    0.7645373194967537 O
   0.2593870339406651    0.8859490548723049    0.2609832831904089 O
   0.1330756092948833    0.3856633156249156    0.3038727729846427 O
   0.6192569307571937    0.7539411926473060    0.3314486211130051 O
