Mg2 Bi3 O8
1.0
   5.2787405294213254   -0.4098395236689278   -2.4095284670363304
  -1.0201515230074294    6.0631345460902040   -3.2662109363161074
  -0.9809769007583521   -0.4266255358150401    6.9344202116438316
Mg Bi O
2 3 8
direct
   0.7051952895225402    0.6728118522937691    0.3456227046280546 Mg
   0.2948057104774640    0.3271891477062354    0.6543772953719459 Mg
   0.4999999999999999    0.9999990000000027    0.0000000000000000 Bi
   0.0000000000060336    0.7324558138138407    0.0000000000081028 Bi
  -0.0000000000060336    0.2675441861861593   -0.0000000000081028 Bi
   0.0104287074775782    0.3763415215064986    0.7526850430200189 O
   0.9895702925224243    0.6236574784935035    0.2473149569799810 O
  -0.0160564522152843    0.8805788890494284    0.7611577780381414 O
   0.0160564522152842    0.1194201109505673    0.2388412219618609 O
   0.4676240094273663    0.3747024069389646    0.2271598865322356 O
   0.4676240094246237    0.8524564795294168    0.2271598865248896 O
   0.5323769905753734    0.1475425204705861    0.7728401134751103 O
   0.5323769905726309    0.6252965930610376    0.7728401134677649 O
