Cd1 Ag3
1.0
   3.7969990090925791   -0.0373860925894397   -3.4286732431607745
  -0.7743930923579974    3.7173801080879905   -3.4286732425076480
   0.0307075011282545    0.0373860911694171    5.1158633430203997
Cd Ag
1 3
direct
   0.0000000000000000    0.0000000000000000    0.0000000000000000 Cd
   0.7499999999999998    0.2500000000000000    0.4999999999999999 Ag
   0.2500000000000000    0.7499999999999999    0.5000000000000000 Ag
   0.4999999999999999    0.4999999999999999   -0.0000000000000000 Ag
