Sm1 Tm1 Ru2
1.0
   0.0000000000000000    3.4005848982240439    3.4005848982240439
   3.4005848982240439   -0.0000000000000000    3.4005848982240439
   3.4005848982240439    3.4005848982240439    0.0000000000000000
Sm Tm Ru
1 1 2
direct
   0.2499990000000025    0.2499990000000026    0.2499990000000025 Sm
   0.7499990000000026    0.7499990000000026    0.7499990000000026 Tm
   0.0000000000000000    0.0000000000000000    0.0000000000000000 Ru
   0.5000000000000000    0.5000000000000000    0.5000000000000001 Ru
