Li6 Co2 B4 O12
1.0
   4.9898277500806811   -0.0284016347362890    0.0488487383729308
   0.0603911716727190    5.9527285846476277    1.5755883210696360
  -0.0120625063009865   -0.1032654625575791    7.8904656579940511
Li Co B O
6 2 4 12
direct
   0.1755645003976712    0.8957787725656092    0.9276525784082070 Li
   0.3249085411583256    0.0325212260459952    0.2618804544385770 Li
   0.3292816518453345    0.7361815033667928    0.6096555307743550 Li
   0.6707183481546656    0.2638184966332069    0.3903444692256451 Li
   0.6750914588416742    0.9674787739540045    0.7381195455614231 Li
   0.8244354996023288    0.1042212274343903    0.0723474215917932 Li
   0.1554368345988947    0.5487846472004639    0.2704061439965113 Co
   0.8445631654011053    0.4512153527995362    0.7295938560034889 Co
   0.6683487545684409    0.6764404074376438    0.0859796634152142 B
   0.8373867948706124    0.8316096935293733    0.4248254683958770 B
   0.1626132051293875    0.1683903064706267    0.5751745316041230 B
   0.3316512454315587    0.3235595925623566    0.9140203365847861 B
   0.7962035036058814    0.5155651240476055    0.2170746707833644 O
   0.1083137754439742    0.7765554711288466    0.3990336527168173 O
   0.2037964963941186    0.4844348759523942    0.7829253292166354 O
   0.1990402518105574    0.1678612535817178    0.0345989464322449 O
   0.2828659872498651    0.2785897837506752    0.4158717883893931 O
   0.2956689237831612    0.0072119204793488    0.6900605580287302 O
   0.3867397998585281    0.6753220149866027    0.0909627765199074 O
   0.6132602001414720    0.3246779850133974    0.9090372234800927 O
   0.7043310762168389    0.9927880795206513    0.3099394419712699 O
   0.7171340127501351    0.7214102162493248    0.5841282116106070 O
   0.8009597481894422    0.8321387464182829    0.9654010535677551 O
   0.8916862245560255    0.2234445288711535    0.6009663472831828 O
