Fe2 Se2
1.0
  -2.4290052365593060   -2.6391985425421796   -0.0000000000000000
  -2.4290052365593060    2.6391985425421796    0.0000000000000000
   0.0000000000000000   -0.0000000000000001   -6.3515516676524459
Fe Se
2 2
direct
   0.5000000000000000    0.5000000000000000    0.0000000000000000 Fe
   0.0000000000000000    0.0000000000000000    0.0000000000000000 Fe
   0.2500000000000000    0.7500000000000000    0.3012080302018254 Se
   0.7500000000000000    0.2500000000000001    0.6987919697981740 Se
