B1 H2 S3 N3 F4
1.0
   5.9716711796432902    0.1006056111879800    0.9669412456819494
   1.0871387842994853    5.9579857814683104    1.1035067176523268
   2.8376148994605419    1.2025536142712938    5.6603094421772697
B H S N F
1 2 3 3 4
direct
   0.5610090966432486    0.7766301501130646    0.2842345073793616 B
   0.7398902681834167    0.4424936088987294    0.1046205831234355 H
   0.8165486833408466    0.2852587148530807    0.9009804914591120 H
   0.1312856452404526    0.4199701713282101    0.3223945996528108 S
   0.8604512382199514    0.0115054318674078    0.4918308032958182 S
   0.1110338557047116    0.2083538338866610    0.0260424098782436 S
   0.2587369658829639    0.3872602630086234    0.0395263531996616 N
  -0.0776147507189887    0.2066592924339843    0.5575101715752153 N
   0.8849667086755835    0.3658550947530538   -0.0342336850146852 N
   0.4868800877733998    0.8440349354831639    0.0932050565357712 F
   0.5261683864689398    0.5228818927321184    0.4198616193437137 F
   0.4073565359907372    0.8943131453195448    0.4682962229524521 F
   0.8424872785947328    0.8324834653223618    0.1390308666191032 F
