La3 Cr2 N6
1.0
  -1.9232633433894066    1.9232633433894066   10.0113975330770444
   1.9232633433894066   -1.9232633433894066   10.0113975330770444
   1.9232633433894066    1.9232633433894066  -10.0113975330770444
La Cr N
3 2 6
direct
   0.0000000000000000    0.0000000000000000    0.0000000000000000 La
   0.1793177255244806    0.1793177255244806    0.0000000000000000 La
   0.8206822744755194    0.8206822744755194    0.0000000000000000 La
   0.3980667914471863    0.3980667914471864    0.0000000000000000 Cr
   0.6019332085528140    0.6019332085528140    0.0000000000000000 Cr
   0.3066200628175138    0.3066200628175138    0.0000000000000000 N
   0.6933799371824861    0.6933799371824863   -0.0000000000000000 N
   0.0868121074585040    0.5868121074585039    0.5000000000000000 N
   0.5868121074585039    0.0868121074585040    0.4999999999999999 N
   0.9131878925414961    0.4131878925414888    0.5000000000000000 N
   0.4131878925414888    0.9131878925414961    0.5000000000000000 N
