Cu3 Rh1 N1
1.0
   3.8677490345825252    0.0000000000000000    0.0000000000000000
  -0.0000000000000000    3.8677490345825252    0.0000000000000000
   0.0000000000000000   -0.0000000000000000    3.8677490345825252
Cu Rh N
3 1 1
direct
   0.5000000000000000    0.0000000000000000    0.0000000000000000 Cu
   0.0000000000000000    0.5000000000000000    0.0000000000000000 Cu
   0.0000000000000000    0.0000000000000000    0.5000000000000000 Cu
   0.5000000000000000    0.5000000000000000    0.5000000000000000 Rh
   0.0000000000000000    0.0000000000000000    0.0000000000000000 N
