Mg3 N1
1.0
   4.1973982121455187    0.3632504641910634   -0.6657492514335613
   2.6151476729789986   -5.6017757686170899   -0.2147349754860498
  -0.2634386074430759   -1.8546773619209924   -2.6571913959877191
Mg N
3 1
direct
   0.1312181711566245    0.0610181993245304    0.0044713960664156 Mg
   0.4875335572976146    0.3484219339284444    0.2253664031273844 Mg
   0.8438239293313047    0.6359470449430612    0.4461797920698100 Mg
  -0.0124602936095863    0.3484683091114474    0.2253515063921634 N
