Ba1 Ca1 I4
1.0
   6.8885757468118687    0.0000000000000000    0.0776341079411127
   0.0000000000000000    4.7288912604923778    0.0000000000000000
   0.0749486469618666    0.0000000000000000    8.3938126787056699
Ba Ca I
1 1 4
direct
  -0.0000000000000000    0.5000000000000000    0.5000000000000000 Ba
   0.0000000000000000    0.0000000000000000    0.0000000000000000 Ca
   0.2707886004474784    0.0000000000000000    0.6922110683684854 I
   0.2502001564146312    0.5000000000000000    0.1418015406164031 I
   0.7497998435853690    0.5000000000000000    0.8581984593835968 I
   0.7292113995525215    0.0000000000000000    0.3077889316315149 I
