Ti1 Ga3
1.0
   3.5195491204306069   -0.0000000025935686   -1.4007043941073389
  -0.5574494351655552    3.4751223332031342   -1.4007043955134204
   0.0186650647621193    0.0218973808923801    5.1690376258343234
Ti Ga
1 3
direct
   0.0000000000000000    0.0000000000000000    0.0000000000000000 Ti
   0.2499999999999999    0.7500000000000000    0.5000000000000000 Ga
   0.7500000000000000    0.2500000000000001    0.5000000000000000 Ga
   0.4999999999999999    0.5000000000000000    0.0000000000000000 Ga
