B1 Ir3
1.0
   3.7648353525742686   -0.0000000000000000    0.0000000000000000
  -0.0000000000000000    3.7648353525742686    0.0000000000000000
  -0.0000000000000000   -0.0000000000000000    3.7648353525742686
B Ir
1 3
direct
   0.0000000000000000    0.0000000000000000    0.0000000000000000 B
   0.0000000000000000    0.5000000000000000    0.5000000000000000 Ir
   0.5000000000000000    0.0000000000000000    0.5000000000000000 Ir
   0.5000000000000000    0.5000000000000000    0.0000000000000000 Ir
