Na1 Mn3 V4 O12
1.0
   6.0159517434464194    0.0004501411753774    2.1254984785216640
  -3.0075807112188859    5.2093818128131044    2.1274795604544545
   0.0014979628713377    0.0001694205324009    6.3807271031776489
Na Mn V O
1 3 4 12
direct
   0.0000033252478660    0.0000010816763758    0.9999984050560130 Na
   0.5000012416438904    0.0000072416205262    0.4999951033086398 Mn
   0.4999838869337923    0.4999986271199580    0.0000173513206016 Mn
   0.9999933103744747    0.4999902888294979    0.4999964581381042 Mn
   0.9999965663116178    0.9999936184828561    0.5000033247551122 V
  -0.0000007575973940    0.5000010669056166    0.9999952576483253 V
   0.5000011849428838    0.5000035975458073    0.5000012522332269 V
   0.5000019421110966    0.0000016436632996    0.0000005510876920 V
   0.8168672550622766    0.3093859970549592    0.8737585120793091 O
   0.1831392376508444    0.3093785409658056    0.5074764897831849 O
   0.3093732001759641    0.1262384870088530    0.1831398218289795 O
   0.3093821168278044    0.4925151546223238    0.8168558581311585 O
   0.6906164969543239    0.5074821441397266    0.1831464487514114 O
   0.4925175015523857    0.1831345769842801    0.6906294621100255 O
   0.8737598046562564    0.1831328380980795    0.3093783378606751 O
   0.5074886130297754    0.8168710164269207    0.3093697306640472 O
   0.1831396607335408    0.6906116876692016    0.1262361170443257 O
   0.1262422282118405    0.8168706158921302    0.6906228327882784 O
   0.6906264823969734    0.8737588088014955    0.8168635808751373 O
   0.8168667027797875    0.6906229664922865    0.4925151045357600 O
