Re2 N4
1.0
   3.8713492544255175    0.0000000000000000    1.7429261359786006
   0.0000000000000000    2.9617985865724035    0.0000000000000000
   0.0024312983088292    0.0000000000000000    5.0076881521601324
Re N
2 4
direct
   0.4999999999999999    0.8110696827184182    0.7499999999999999 Re
   0.5000000000000000    0.1889303172815819    0.2500000000000000 Re
   0.1766250297614837    0.3026788212138766    0.6916289390449587 N
   0.8233749702385161    0.3026788212138766    0.8083710609550413 N
   0.8233749702385162    0.6973211787861232    0.3083710609550411 N
   0.1766250297614837    0.6973211787861232    0.1916289390449590 N
