Be1 Ga2 Os1
1.0
  -1.8491326356476216    1.8491326356476216    3.8840101005661074
   1.8491326356476216   -1.8491326356476216    3.8840101005661074
   1.8491326356476216    1.8491326356476216   -3.8840101005661074
Be Ga Os
1 2 1
direct
   0.7500000000000001    0.2500000000000000    0.5000000000000001 Be
   0.0000000000000000    0.0000000000000000    0.0000000000000000 Ga
   0.2500000000000001    0.7500000000000000    0.5000000000000001 Ga
   0.5000000000000000    0.5000000000000000    0.0000000000000000 Os
