Er10 Sb2 Pt4
1.0
   6.8488596867208731   -0.0812640746204256   -5.2150984892224228
  -1.7290720509566528    6.6275027499665962   -5.2150984892224228
   0.0635563145646772    0.0812640746189179    8.6081410220618189
Er Sb Pt
10 2 4
direct
   0.0000000000000000    0.0000000000000000    0.0000000000000000 Er
   0.5000000000000000    0.4999999999999999   -0.0000000000000000 Er
   0.7953253938202464    0.2953253938202465    0.8114343824378640 Er
   0.2046746061797534    0.7046746061797536    0.1885656175621360 Er
   0.4838900113823787    0.9838900113823783    0.1885656175621357 Er
   0.2953253938202469    0.4838900113823785    0.4999999999999998 Er
   0.0161099886176215    0.2046746061797532    0.5000000000000002 Er
   0.5161099886176216    0.0161099886176214    0.8114343824378647 Er
   0.7046746061797533    0.5161099886176218    0.5000000000000002 Er
   0.9838900113823782    0.7953253938202465    0.4999999999999999 Er
   0.2500000000000000    0.2499999999999999   -0.0000000000000000 Sb
   0.7499999999999999    0.7500000000000000    0.0000000000000000 Sb
   0.1401951771909162    0.6401951771909163    0.7803903543818307 Pt
   0.8598048228090835    0.3598048228090838    0.2196096456181692 Pt
   0.6401951771909159    0.8598048228090839    0.4999999999999999 Pt
   0.3598048228090843    0.1401951771909157    0.5000000000000000 Pt
