K2 Tl1 Hg1 Br6
1.0
   6.9326386710636161   -0.0000000000000000    4.0025608029329893
   2.3108795570212055    6.5361544211002363    4.0025608029329893
  -0.0000000000000000   -0.0000000000000000    8.0051216058659769
K Tl Hg Br
2 1 1 6
direct
   0.7500000000000000    0.7500000000000000    0.7500000000000001 K
   0.2500000000000000    0.2500000000000000    0.2500000000000000 K
   0.0000000000000000    0.0000000000000000    0.0000000000000000 Tl
   0.4999999999999999    0.5000000000000000    0.5000000000000000 Hg
   0.7463169464973410    0.2536830535026590    0.2536830535026590 Br
   0.2536830535026590    0.2536830535026590    0.7463169464973410 Br
   0.2536830535026590    0.7463169464973409    0.7463169464973410 Br
   0.2536830535026590    0.7463169464973409    0.2536830535026590 Br
   0.7463169464973410    0.2536830535026590    0.7463169464973410 Br
   0.7463169464973410    0.7463169464973409    0.2536830535026590 Br
