Li2 Mg1 Cd1
1.0
   4.1209659795707863   -0.0000000000000000    2.3792408176264841
   1.3736553265235956    3.8852839855914216    2.3792408176264841
  -0.0000000000000000   -0.0000000000000000    4.7584816352529673
Li Mg Cd
2 1 1
direct
   0.5000000000000001    0.5000000000000000    0.4999999999999999 Li
   0.7499999999999999    0.7500000000000000    0.7500000000000001 Li
   0.2500000000000001    0.2500000000000000    0.2500000000000000 Mg
   0.0000000000000000    0.0000000000000000    0.0000000000000000 Cd
