Sr2 Al4 Cu2
1.0
   5.7945981370342805   -2.0641530263437700    0.0000239889411766
   5.7945981370342805    2.0641530263437700    0.0000239889411766
   0.0000272924069228    0.0000000000000000    7.2657656899440344
Sr Al Cu
2 4 2
direct
   0.4540907752858601    0.4540907752858601    0.2499553092791874 Sr
   0.5459083120127310    0.5459083120127312    0.7499688786869214 Sr
   0.1755994271829588    0.1755994271829588    0.0620159001419134 Al
   0.1755940803186412    0.1755940803186412    0.4379173633227446 Al
   0.8244045876486029    0.8244045876486030    0.5620087866185718 Al
   0.8244034436064885    0.8244034436064887    0.9379104345282081 Al
   0.7295949729749370    0.7295949729749371    0.2499622628089997 Cu
   0.2704044009697804    0.2704044009697804    0.7499610646134509 Cu
