Mn2 Te2
1.0
  -2.1033063080090826   -3.6437351657939843    0.0000000000000000
  -2.1033063080090826    3.6437351657939843   -0.0000000000000000
   0.0000000000000000   -0.0000000000000000   -5.9482721197280615
Mn Te
2 2
direct
   0.0000000000000000    0.0000000000000000    0.5000000000000000 Mn
   0.0000000000000000    0.0000000000000000    0.0000000000000000 Mn
   0.6666603053837415    0.3333396946162583    0.7500000000000000 Te
   0.3333396946162582    0.6666603053837415    0.2500000000000000 Te
