P8 Rh4
1.0
   0.0000000000000000    5.8131922714214657    0.0016386677347013
   5.8568113533095740    0.0000000000000000    0.0000000000000000
   0.0000000000000000   -2.2535771051050411   -5.4582956177815918
P Rh
8 4
direct
   0.8400017022413719    0.1204875143606977    0.1335593190508068 P
   0.1599982977586282    0.6204875143606978    0.3664406809491932 P
   0.1599982977586283    0.8795124856393021    0.8664406809491936 P
   0.8400017022413721    0.3795124856393023    0.6335593190508065 P
   0.6658003327818125    0.6229404257406108    0.8132520097786722 P
   0.3341996672181878    0.1229404257406108    0.6867479902213278 P
   0.3341996672181878    0.3770595742593892    0.1867479902213277 P
   0.6658003327818125    0.8770595742593891    0.3132520097786723 P
   0.7281879240695708    0.5013849673497386    0.2107673406371128 Rh
   0.2718120759304292    0.0013849673497385    0.2892326593628872 Rh
   0.2718120759304293    0.4986150326502616    0.7892326593628873 Rh
   0.7281879240695708    0.9986150326502614    0.7107673406371127 Rh
