Co4 Re4 B4
1.0
   3.3228585147008634    0.0000000000000000    0.0000000000000000
  -0.0000000000000000    5.6106464059525800    0.0000000000000000
   0.0000000000000000    0.0000000000000000    6.4942381764087571
Co Re B
4 4 4
direct
   0.7500000000000000    0.8552195016507657    0.5566999305574208 Co
   0.2500000000000000    0.1447804983492342    0.4433000694425792 Co
   0.7500000000000000    0.3552195016507658    0.9433000694425792 Co
   0.2500000000000000    0.6447804983492343    0.0566999305574208 Co
   0.2500000000000000    0.5294342528363134    0.6719075779734043 Re
   0.7500000000000000    0.4705657471636867    0.3280924220265957 Re
   0.2500000000000000    0.0294342528363133    0.8280924220265957 Re
   0.7500000000000000    0.9705657471636866    0.1719075779734042 Re
   0.2500000000000000    0.2680599849656701    0.1240427267822062 B
   0.7500000000000000    0.7319400150343301    0.8759572732177937 B
   0.2500000000000000    0.7680599849656700    0.3759572732177938 B
   0.7500000000000000    0.2319400150343301    0.6240427267822064 B
