Ta1 Ga1 Os2
1.0
   0.0000000006203915    3.1263403571664981    3.1263393553053196
   3.1263393556155203   -0.0000020040325564    3.1263423605786600
   3.1263363500319850    3.1263403568563031    0.0000010015509785
Ta Ga Os
1 1 2
direct
   0.7499990000000025    0.7499990000000026    0.7499990000000026 Ta
   0.2500000000000000    0.2500000000000000    0.2500000000000000 Ga
   0.0000000000000000    0.9999990000000025   -0.0000000000000000 Os
   0.5000000000000000    0.5000000000000000    0.5000000000000000 Os
