Be2 Cd1 Sn1
1.0
   2.9334317100301774   -0.0000000000000000   -0.0000000000000000
  -0.0000000000000000    2.9334317100301774   -0.0000000000000000
  -0.0000000000000000    0.0000000000000000    8.0671054385810166
Be Cd Sn
2 1 1
direct
   0.0000000000000000    0.0000000000000000    0.0785875186511588 Be
   0.5000000000000000    0.5000000000000000    0.1854055705610573 Be
   0.0000000000000000    0.0000000000000000    0.4320088175319708 Cd
   0.5000000000000000    0.5000000000000000    0.8039980932558131 Sn
