Co1 Cl2 O8
1.0
   4.5272731383833333   -0.0247482745684035    6.0951164378502032
   1.9981945111823645    4.0625120809192641    6.0951184872093096
  -0.0399989991969456   -0.0247552441391324    7.5924336504669476
Co Cl O
1 2 8
direct
   0.0000000000000000    0.0000000000000000    0.0000000000000000 Co
   0.7489802230643132    0.7489802230178784    0.7489802230745143 Cl
   0.2510197769356867    0.2510197769821220    0.2510197769254853 Cl
   0.8155978901517619    0.8155978900616961    0.8155978901715476 O
   0.1844021098482384    0.1844021099383037    0.1844021098284521 O
   0.0052905047248517    0.4299931626391856    0.7379562430987476 O
   0.2620437569246580   -0.0052905047576919    0.5700068373986479 O
   0.5700068373213895    0.2620437570082487   -0.0052905047985145 O
  -0.0052905047248517    0.5700068373608148    0.2620437569012520 O
   0.7379562430753420    0.0052905047576919    0.4299931626013523 O
   0.4299931626786110    0.7379562429917514    0.0052905047985142 O
