Sr2 Cu1 S1 O2
1.0
   3.8887707678662111   -0.0000000000000000    0.0000000000000002
   0.0000000000000006    3.8887707678662111    0.0000000000000002
  -0.0000000000000000   -0.0000000000000000    6.8137308342681093
Sr Cu S O
2 1 1 2
direct
   0.0000000000000000    0.0000000000000000    0.2494629462983073 Sr
   0.0000000000000000    0.0000000000000000    0.7505370537016925 Sr
   0.4999999999999999    0.4999999999999999    0.0000000000000000 Cu
   0.4999999999999999    0.4999999999999999    0.5000000000000000 S
   0.0000000000000000    0.4999999999999999    0.0000000000000000 O
   0.4999999999999999    0.0000000000000000    0.0000000000000000 O
