Tb3 Pr1
1.0
   4.6073868625966377    0.0051646964467374   -4.0986629587668206
  -0.9247992092376599    4.5136223588500268   -4.0986629587668215
  -0.0042089718257121   -0.0051646964559794    6.1666063629629564
Tb Pr
3 1
direct
   0.7500000000000001    0.2500000000000000    0.5000000000000001 Tb
   0.2500000000000000    0.7500000000000000    0.4999999999999999 Tb
   0.5000000000000000    0.5000000000000000    0.0000000000000001 Tb
   0.0000000000000000    0.0000000000000000    0.0000000000000000 Pr
