As4 Pd12
1.0
  -5.0381566724354867    5.0381564751689316    2.4340080990799970
   5.0381566724354867   -5.0381564751689316    2.4340080990799970
   5.0381564751689307    5.0381566724354867   -2.4340080990799970
As Pd
4 12
direct
   0.4777756406356852    0.8038097423267296    0.2384146686852411 As
   0.5653950736414884    0.2393609719504513    0.7615853313147587 As
   0.7606390280495489    0.5222243593643145    0.3260341016910445 As
   0.1961902576732704    0.4346049263585114    0.6739658983089558 As
   0.6517258748442052    0.8385518445166195    0.9637306259173897 Pd
   0.8748212185992371    0.6879952489268231    0.0362693740826104 Pd
   0.3120047510731770    0.3482741251557946    0.1868259696724141 Pd
   0.1614481554833805    0.1251787814007629    0.8131740303275857 Pd
   0.9909475005681901    0.3875342283479993    0.3327047491553298 Pd
   0.0548294791926766    0.6582427514128533    0.6672952508446701 Pd
   0.3417572485871469    0.0090524994318098    0.3965867277798092 Pd
   0.6124657716520006    0.9451705208073236    0.6034132722201907 Pd
   0.0217690414454411    0.4159862457265356    0.9536776378825367 Pd
   0.4623086078440062    0.0680914035629188    0.0463223621174634 Pd
   0.9319085964370812    0.9782309585545585    0.3942172042810875 Pd
   0.5840137542734645    0.5376913921559938    0.6057827957189126 Pd
