La2 Ga2 Sb4
1.0
  11.7665582211337370    0.0006051418700677    0.0000000000000007
 -10.9391799773429099    4.3343089600104276    0.0000000000000007
  -0.0000000000000000    0.0000000000000000    4.4278261359366615
La Ga Sb
2 2 4
direct
   0.8627395872520300    0.1372604127479699    0.2500000000000000 La
   0.1372604127479699    0.8627395872520300    0.7500000000000000 La
   0.1543348262017193    0.1543348262017193    0.0000000000000000 Ga
   0.8456651737982809    0.8456651737982809    0.5000000000000000 Ga
   0.5897782397904444    0.4102217602095556    0.2500000000000000 Sb
   0.4102217602095556    0.5897782397904445    0.7500000000000000 Sb
   0.2497948907732506    0.7502051092267493    0.2500000000000000 Sb
   0.7502051092267493    0.2497948907732505    0.7500000000000000 Sb
